LAMMPS (8 Aug 2014)
WARNING: OMP_NUM_THREADS environment is not set. (../comm.cpp:88)
  using 1 OpenMP thread(s) per MPI task
# Bead-spring polymer simulation with small-molecule diffusion - lj
# 160-mers
# 25 chains
# FENE potential repulsive all sites, with interactive temperature

units lj

shell	       echo 1.0 > Tempfile.txt
shell	       echo 1.0 > Bondfile.txt

variable       myTempStr file Tempfile.txt
variable       myTemp equal v_myTempStr

variable       myBondStr file Bondfile.txt
variable       myBond equal v_myBondStr

neighbor	0.4 bin
neigh_modify	every 1 delay 5 check yes

atom_style 	molecular

# soft potential for initial pushoff
pair_style	lj/cut 1.12246
pair_modify	shift yes
bond_style	fene

# filename of the data-file (or restart-file) to be used
#read_data	newdataNbead160.txt
read_restart	restartsoft1
WARNING: Restart file used different # of processors (../read_restart.cpp:704)
  orthogonal box = (-8.37884 -8.37884 -8.37884) to (8.37884 8.37884 8.37884)
  1 by 2 by 2 MPI processor grid
  4000 atoms
  3975 bonds
  2 = max # of 1-2 neighbors
  2 = max # of 1-3 neighbors
  4 = max # of 1-4 neighbors
  6 = max # of special neighbors

# pair coefficients
pair_coeff	* * 1.0 1.0
#pair_coeff	* * 10.0

bond_coeff	1 30.0 1.5 1.0 1.0

#special_bonds	lj 0.0 1.0 1.0

# set the timestep in the specified units
timestep	0.001

thermo_style	one

# set the parameters here
fix 1 all nve/limit 0.01
#fix 2 all temp/rescale 1 0.0 1.0 0.05 1.0
fix 3 all langevin v_myTemp 1.0 1.0 39253

thermo		100
run 10000
WARNING: Use special bonds = 0,1,1 with bond style fene (../bond_fene.cpp:188)
Memory usage per processor = 5.26375 Mbytes
Step Temp E_pair E_mol TotEng Press 
    5000   0.98808728 0.0036475406     20.60034    22.085748   0.69344351 
    5100   0.97990181  0.013518659    20.594025    22.077029  -0.28512534 
    5200   0.96897318   0.03938576    20.608113    22.100595  0.093899196 
    5300   0.96681325  0.069915233     20.60006    22.119833   0.39779209 
    5400   0.94989169  0.094593829    20.615393    22.134469    0.2573012 
    5500   0.94459383   0.11543703    20.608656    22.140629   0.36030627 
    5600    0.9491041   0.12997428    20.609728    22.163002   0.44901952 
    5700   0.94295293     0.140329    20.605253    22.159657   0.57832624 
    5800   0.95556968   0.14929125     20.59463    22.176918   0.21204909 
    5900   0.94761552   0.15530561    20.600795    22.177169   0.24099708 
    6000   0.94453671    0.1645705    20.593707    22.174728       0.3079 
    6100   0.96028537   0.17078479    20.586916    22.197769   0.19302125 
    6200   0.95934641   0.17140869    20.584374    22.194443  0.092353013 
    6300   0.96877084   0.16993426    20.585649    22.208376   0.27799043 
    6400   0.98093661   0.16994672     20.60529    22.246274   0.40817634 
    6500   0.98595927   0.16922314    20.590296    22.238088   0.38589673 
    6600   0.97844013   0.16884746    20.604953    22.241094   0.18615073 
    6700    0.9824843   0.17082156    20.613169    22.257349   0.30440573 
    6800   0.99982606   0.17335835    20.596334    22.269056   0.49609055 
    6900   0.98228383   0.17752694    20.614975    22.265559   0.15381672 
    7000   0.98951407   0.17734281    20.596818     22.25806   0.21200004 
    7100    1.0051645    0.1739203    20.599473    22.280763   0.48749062 
    7200    1.0110822   0.17172677    20.598394    22.286365   0.31571529 
    7300   0.98592854   0.17696584    20.611383    22.266872 -0.0069105946 
    7400   0.99741532   0.17577103    20.602631    22.274151   0.65618747 
    7500   0.99848158   0.17396979    20.591742    22.263059   0.37372009 
    7600   0.99975566   0.17807055    20.595399    22.272728   0.41129755 
    7700   0.98812457   0.18208166    20.597042     22.26094   0.14964853 
    7800   0.97621949   0.18503941    20.596396    22.245398   0.47031287 
    7900   0.99035604   0.18047794    20.597652    22.263293   0.28781646 
    8000   0.99377815   0.18109212    20.589308    22.260695   0.31773386 
    8100   0.99392996   0.18396159     20.59479    22.269274   0.20786927 
    8200   0.98607706   0.18573286    20.599816    22.264295   0.23232462 
    8300    1.0002002   0.19144934    20.578535     22.26991   0.25700242 
    8400   0.98158732   0.19260252     20.59423    22.258845   0.47786097 
    8500    1.0017446   0.19074355    20.591386    22.284371   0.30985266 
    8600   0.99255138   0.19006322    20.585339    22.263857   0.20441079 
    8700    1.0014088   0.19011169     20.58542    22.277269   0.25754304 
    8800    1.0069744   0.18807519    20.570969    22.269128   0.46621399 
    8900    0.9961911   0.18898371    20.596896    22.279793   0.36876396 
    9000   0.99920936   0.18968227    20.581552    22.269674   0.13756699 
    9100   0.98823612   0.18789284     20.60658    22.276457   0.41845964 
    9200   0.98253682   0.18619015    20.602821    22.262448   0.25138864 
    9300   0.99870743   0.18714831    20.590993    22.275828   0.35828761 
    9400   0.98798576   0.19200849    20.603854    22.277471   0.34130401 
    9500    1.0002396   0.19207044    20.579326    22.271381   0.47738255 
    9600   0.99323091   0.19164922    20.605797     22.28692   0.25319887 
    9700    1.0138309   0.19225823    20.581237    22.293862   0.20099668 
    9800   0.99900031   0.19382337    20.598754    22.290703   0.27506958 
    9900    1.0121928    0.1913584    20.588706    22.297974   0.23439994 
   10000    1.0027409    0.1886599    20.598332    22.290727   0.44511725 
   10100    1.0106368   0.18866294    20.591298    22.295537   0.41814945 
   10200   0.98998805   0.19220561    20.603006    22.279822   0.28773737 
   10300    1.0067697    0.1956187    20.586335     22.29173   0.39496888 
   10400   0.99249458   0.19753615    20.585799    22.271705   0.20846173 
   10500   0.99237117   0.19479835    20.606283    22.289266   0.43110813 
   10600   0.99052248   0.19296946    20.595412    22.273794   0.31352305 
   10700    1.0036326   0.19502149    20.589843    22.289937   0.26235713 
   10800    1.0026897   0.19593723    20.580547    22.280143   0.36072736 
   10900   0.99455099    0.1918531    20.602313     22.28562   0.17037864 
   11000    1.0050128   0.19061155    20.583814    22.281567   0.56312496 
   11100   0.99596592   0.19503995    20.584838    22.273453   0.17287555 
   11200   0.98715762   0.19460025    20.591235    22.266202   0.45952169 
   11300   0.98983574   0.19327085    20.604958    22.282611  0.098192821 
   11400   0.99200365   0.19328286    20.606095    22.287011   0.36117158 
   11500    1.0012605    0.1941162    20.597864    22.293496   0.40439361 
   11600    1.0021672   0.19359062    20.599001    22.295467   0.24173653 
   11700    1.0084487   0.18815897    20.604925    22.305379   0.33150519 
   11800   0.99957609   0.18652491    20.584024    22.269538   0.42569036 
   11900   0.99217743   0.18570065    20.604311    22.277905   0.27801612 
   12000   0.97913089     0.185157    20.604973     22.25846   0.46548664 
   12100    1.0016748   0.18608854    20.595602    22.283827   0.34748949 
   12200   0.99387516   0.18744256    20.601473    22.279355   0.49306948 
   12300   0.97728574   0.19211044     20.60191    22.259583   0.38402285 
   12400   0.97724138   0.19393178    20.592727    22.252154   0.12088477 
   12500   0.98293402   0.19347192    20.581466     22.24897   0.34627474 
   12600   0.97647174   0.19401399    20.591815    22.250171   0.19057446 
   12700   0.98328127     0.196404    20.598911    22.269869   0.59556812 
   12800    1.0049765   0.19964621    20.595733    22.302467   0.33832181 
   12900   0.99686376   0.20171166    20.604712    22.301346   0.29953103 
   13000    1.0015447    0.2015841    20.597733    22.301258   0.24957335 
   13100    1.0000449   0.20091902    20.597789      22.2984    0.3257071 
   13200    1.0078729   0.19977444     20.58888    22.300086    0.4623443 
   13300   0.99181622   0.20037528    20.601922     22.28965   0.22023098 
   13400    0.9949437   0.19751068    20.588075    22.277628   0.75765465 
   13500   0.97609949   0.19403114    20.594064    22.251878  0.094047627 
   13600   0.98879742   0.19403166    20.580601    22.257458   0.23842535 
   13700   0.98796163   0.19354856    20.580594    22.255714   0.41930904 
   13800   0.97881601   0.18997545    20.591805    22.249638   0.35616988 
   13900    0.9881062   0.18337111    20.584011    22.249171   0.10582359 
   14000    0.9904292   0.18087977    20.577164    22.243316   0.32758694 
   14100   0.99084768   0.18106363    20.581173    22.248137   0.22732749 
   14200   0.99752369   0.18560837     20.57276     22.25428   0.54718248 
   14300    0.9864447   0.19050043    20.577489    22.247287    0.4394642 
   14400   0.99074965   0.19075037     20.57484    22.251343   0.46041934 
   14500    1.0033975   0.19125594    20.572903    22.268879   0.22765517 
   14600    1.0038108   0.18841955    20.581314    22.275073   0.28312829 
   14700    1.0060779   0.18941787    20.578356    22.276514   0.31645445 
   14800    1.0156554   0.18956254    20.587103    22.299768   0.38138251 
   14900     1.014026    0.1922565    20.590012    22.302927   0.13675593 
   15000    1.0179502   0.19278949    20.583121    22.302454    0.4854831 
Loop time of 2.99803 on 4 procs (4 MPI x 1 OpenMP) for 10000 steps with 4000 atoms

Pair  time (%) = 0.821987 (27.4175)
Bond  time (%) = 0.302581 (10.0927)
Neigh time (%) = 0.173366 (5.78266)
Comm  time (%) = 0.816732 (27.2422)
Outpt time (%) = 0.00409049 (0.136439)
Other time (%) = 0.879278 (29.3285)

Nlocal:    1000 ave 1062 max 940 min
Histogram: 1 1 0 0 0 0 0 1 0 1
Nghost:    1075 ave 1122 max 1043 min
Histogram: 2 0 0 0 0 1 0 0 0 1
Neighs:    3046.25 ave 3483 max 2602 min
Histogram: 1 0 1 0 0 0 0 1 0 1

Total # of neighbors = 12185
Ave neighs/atom = 3.04625
Ave special neighs/atom = 5.925
Neighbor list builds = 210
Dangerous builds = 0

unfix 1

fix 4 all nve

# set Interactive Molecular Dynamics

fix comm all imd 5678 trate 5 unwrap on #fscale #10.0

reset_timestep 	0

# change the 8000 to change how often to save the positions of the atoms
#dump 		1 all custom 500 position_imd.lammpstrj id type xs ys zs ix iy iz

# how often to output thermodynamic data

# how often to outout restart files and their names
#restart       5000000 restartimd1 restartimd2

label          loop2here

# specifies the run length in timesteps
run            2000
WARNING: Use special bonds = 0,1,1 with bond style fene (../bond_fene.cpp:188)
Memory usage per processor = 5.5915 Mbytes
Step Temp E_pair E_mol TotEng Press 
       0    1.0179502   0.19278949    20.583121    22.302454    0.4854831 
     100    1.0037566   0.19203738    20.588072    22.285368   0.43052955 
     200   0.99850199   0.19439706    20.592542    22.284317   0.11713909 
     300   0.99958371   0.19248372    20.595525    22.287009    0.3777566 
     400   0.99542231   0.19392158    20.601473    22.288155   0.35331449 
     500    0.9963099   0.19401477    20.595736    22.283842   0.64442582 
     600   0.99418228   0.19194052    20.581155    22.263996   0.47744785 
     700   0.98956743   0.18767831    20.591833    22.263492   0.13260873 
     800    1.0024351   0.18407994    20.580823     22.26818   0.29452201 
     900   0.99059032   0.18575944    20.586936    22.258209   0.21165494 
    1000   0.98134021   0.18555941    20.583334    22.240536   0.20653011 
    1100   0.97963718   0.18330452    20.574315    22.226708   0.64621215 
    1200   0.97892888   0.18509295    20.579158    22.232277   0.20361632 
    1300   0.97570641   0.18469297    20.584922    22.232809   0.18752595 
    1400   0.98453953   0.18910749    20.571856    22.237403   0.25652121 
    1500   0.98185952   0.19506816     20.58464     22.25213   0.43010527 
    1600    0.9825982   0.19793296    20.582484    22.253946   0.21587512 
    1700   0.99781172   0.19741004    20.588144    22.281898   0.52871453 
    1800   0.97566747   0.19678487    20.615476    22.275397   0.31400295 
    1900   0.98809257   0.19304414    20.604225    22.279038   0.26501666 
    2000    0.9831305   0.19171771    20.607013    22.273058   0.34362205 
Loop time of 0.510395 on 4 procs (4 MPI x 1 OpenMP) for 2000 steps with 4000 atoms

Pair  time (%) = 0.143813 (28.1769)
Bond  time (%) = 0.0477731 (9.36003)
Neigh time (%) = 0.0292546 (5.73175)
Comm  time (%) = 0.114372 (22.4086)
Outpt time (%) = 0.000967443 (0.189548)
Other time (%) = 0.174214 (34.1332)

Nlocal:    1000 ave 1051 max 932 min
Histogram: 1 0 0 0 1 0 0 0 1 1
Nghost:    1070.25 ave 1091 max 1050 min
Histogram: 1 0 0 0 1 1 0 0 0 1
Neighs:    3082 ave 3401 max 2752 min
Histogram: 1 0 1 0 0 0 0 0 1 1

Total # of neighbors = 12328
Ave neighs/atom = 3.082
Ave special neighs/atom = 5.925
Neighbor list builds = 41
Dangerous builds = 0
shell          head -n 2 Temp.txt | tail -n 1 >> Tempfile.txt
shell          head -n 2 Bond.txt | tail -n 1 >> Bondfile.txt
next           myTempStr
next           myBondStr
if "${myBond} <= 0" then "jump imdinput.txt nobonds"
jump           imdinput.txt loop2here

# specifies the run length in timesteps
run            2000
WARNING: Use special bonds = 0,1,1 with bond style fene (../bond_fene.cpp:188)
Memory usage per processor = 5.58955 Mbytes
Step Temp E_pair E_mol TotEng Press 
    2000    0.9831305   0.19171771    20.607013    22.273058   0.34362205 
    2100   0.99135566   0.19162306    20.600327    22.278612   0.38858577 
    2200    1.0000312   0.19072183     20.59701    22.287403    0.2341788 
    2300    1.0037272   0.18793344    20.601404    22.294552   0.30557911 
    2400    1.0119568   0.18601154    20.611754    22.315321   0.52535603 
    2500    1.0199711   0.18776766     20.58443    22.301772    0.2895044 
    2600   0.99418999   0.18974657    20.609124    22.289783   0.42719608 
    2700   0.98492639   0.19553049    20.605738    22.278288   0.41746663 
    2800      1.00317   0.19943211    20.589807    22.293618   0.22071575 
    2900    1.0028555   0.19895416    20.575542    22.278404   0.48526509 
    3000   0.98724405   0.19527236    20.615288    22.291056   0.31043748 
    3100    1.0039017   0.18898748    20.600116    22.294579  0.099895043 
    3200    1.0045702   0.18483652    20.606519    22.297834   0.39999234 
    3300   0.99567169   0.18526829    20.621013    22.299416   0.24043159 
    3400   0.99486108   0.18998369    20.600562    22.282464    0.3246511 
    3500    0.9990276   0.19084893    20.594479    22.283495   0.45672875 
    3600    1.0013209     0.191233    20.599454    22.292293   0.35431753 
    3700   0.98241197   0.19117802    20.619416    22.283844   0.33339042 
    3800    1.0025479   0.19263285    20.592067    22.288146   0.26594008 
    3900    1.0053509   0.19235432    20.605509    22.305513   0.39822031 
    4000    1.0013142    0.1919968    20.593996    22.287588   0.53962799 
Loop time of 0.470288 on 4 procs (4 MPI x 1 OpenMP) for 2000 steps with 4000 atoms

Pair  time (%) = 0.136677 (29.0625)
Bond  time (%) = 0.0451567 (9.60192)
Neigh time (%) = 0.027351 (5.81581)
Comm  time (%) = 0.0982337 (20.888)
Outpt time (%) = 0.000901103 (0.191607)
Other time (%) = 0.161968 (34.4402)

Nlocal:    1000 ave 1054 max 937 min
Histogram: 1 0 0 1 0 0 0 0 1 1
Nghost:    1091.5 ave 1146 max 1052 min
Histogram: 1 0 0 2 0 0 0 0 0 1
Neighs:    3058.5 ave 3399 max 2657 min
Histogram: 1 0 1 0 0 0 0 0 1 1

Total # of neighbors = 12234
Ave neighs/atom = 3.0585
Ave special neighs/atom = 5.925
Neighbor list builds = 41
Dangerous builds = 0
shell          head -n 2 Temp.txt | tail -n 1 >> Tempfile.txt
shell          head -n 2 Bond.txt | tail -n 1 >> Bondfile.txt
next           myTempStr
next           myBondStr
if "${myBond} <= 0" then "jump imdinput.txt nobonds"
jump           imdinput.txt loop2here

# specifies the run length in timesteps
run            2000
WARNING: Use special bonds = 0,1,1 with bond style fene (../bond_fene.cpp:188)
Memory usage per processor = 5.59077 Mbytes
Step Temp E_pair E_mol TotEng Press 
    4000    1.0013142    0.1919968    20.593996    22.287588   0.53962799 
    4100     1.008493   0.19301197    20.581583    22.286957   0.44265258 
    4200   0.99839281   0.19370501    20.593092    22.284012   0.30889117 
    4300   0.99562601   0.19901669    20.603777     22.29586   0.37983662 
    4400    1.0105105   0.19859891    20.587489    22.301475   0.21353574 
    4500   0.99524029   0.19501076    20.596719    22.284217   0.20149796 
    4600   0.99788962   0.18966818    20.597024    22.283152   0.44329939 
    4700    1.0059077   0.18816909    20.591619    22.288272   0.30449644 
    4800    1.0020137   0.18779893    20.594695    22.285139   0.25152482 
    4900   0.99950177   0.18649486    20.601147    22.286519    0.3468488 
    5000    1.0094012   0.18723833    20.591221    22.292183   0.34787029 
    5100    1.0257266   0.18397376     20.58921    22.311389   0.38844027 
    5200   0.99986249   0.18528772    20.610613     22.29532  0.024299996 
    5300    1.0168551   0.18422843    20.584631    22.293761   0.53068906 
    5400    0.9935933    0.1858801    20.602216    22.278113   0.40058459 
    5500   0.99782201   0.18912956      20.5961    22.281589  0.051333279 
    5600   0.99040434   0.19255997    20.600571    22.278366   0.62224309 
    5700   0.97988858   0.19634747    20.598182    22.263995   0.23484964 
    5800   0.96770866   0.19702034     20.59691     22.24513   0.12613335 
    5900   0.98139133   0.19348579    20.595206    22.260411    0.1683285 
    6000   0.98621595   0.19286034    20.596822    22.268636   0.38862281 
Loop time of 0.462389 on 4 procs (4 MPI x 1 OpenMP) for 2000 steps with 4000 atoms

Pair  time (%) = 0.136797 (29.5848)
Bond  time (%) = 0.0453286 (9.80312)
Neigh time (%) = 0.0269623 (5.83108)
Comm  time (%) = 0.0918531 (19.8649)
Outpt time (%) = 0.000918448 (0.198631)
Other time (%) = 0.16053 (34.7175)

Nlocal:    1000 ave 1034 max 981 min
Histogram: 1 1 0 1 0 0 0 0 0 1
Nghost:    1070.75 ave 1151 max 1023 min
Histogram: 1 1 0 1 0 0 0 0 0 1
Neighs:    3082 ave 3366 max 2824 min
Histogram: 1 0 0 1 0 1 0 0 0 1

Total # of neighbors = 12328
Ave neighs/atom = 3.082
Ave special neighs/atom = 5.925
Neighbor list builds = 41
Dangerous builds = 0
shell          head -n 2 Temp.txt | tail -n 1 >> Tempfile.txt
shell          head -n 2 Bond.txt | tail -n 1 >> Bondfile.txt
next           myTempStr
next           myBondStr
if "${myBond} <= 0" then "jump imdinput.txt nobonds"
jump           imdinput.txt loop2here

# specifies the run length in timesteps
run            2000
WARNING: Use special bonds = 0,1,1 with bond style fene (../bond_fene.cpp:188)
Memory usage per processor = 5.58564 Mbytes
Step Temp E_pair E_mol TotEng Press 
    6000   0.98621595   0.19286034    20.596822    22.268636   0.38862281 
    6100   0.99175067   0.19370791    20.589602    22.270564   0.56419091 
    6200   0.99116778   0.19634715    20.587006    22.269733   0.35315829 
    6300   0.96818699   0.20036536    20.606244    22.258527   0.13306888 
    6400   0.98436253   0.19764331    20.587693    22.261511   0.40799635 
    6500   0.99129636   0.19611679    20.583868    22.266557   0.14665825 
    6600   0.99185593    0.1969156    20.580813    22.265141   0.57087068 
    6700    0.9829875   0.20101586    20.586139    22.261268   0.33014684 
    6800   0.97813228   0.20478947    20.589806    22.261427   0.25370015 
    6900   0.97871845   0.20841731    20.592181    22.268309   0.23786828 
    7000   0.97865998   0.20354644    20.613716    22.284885   0.19232879 
    7100   0.98712169   0.19879288    20.597415     22.27652   0.35768214 
    7200   0.99843635   0.19453986    20.588773    22.280593   0.37634582 
    7300   0.98689327   0.19239572    20.589422    22.261788   0.45556581 
    7400    0.9842408   0.19035181    20.579251    22.245595   0.29737698 
    7500   0.97783004   0.18731724    20.590183    22.243879   0.29897876 
    7600   0.98786604   0.18600427    20.584408    22.251841   0.35005022 
    7700   0.99562093   0.18768294    20.582043    22.262784   0.42360658 
    7800   0.98366137   0.19034538    20.592546    22.258014    0.1852447 
    7900   0.99501908    0.1929785    20.592685    22.277819   0.29485225 
    8000    1.0022728   0.19140433    20.580643    22.275081   0.33918595 
Loop time of 0.460026 on 4 procs (4 MPI x 1 OpenMP) for 2000 steps with 4000 atoms

Pair  time (%) = 0.137243 (29.8338)
Bond  time (%) = 0.0453781 (9.86427)
Neigh time (%) = 0.0255813 (5.56084)
Comm  time (%) = 0.0916554 (19.924)
Outpt time (%) = 0.000936389 (0.203552)
Other time (%) = 0.159231 (34.6136)

Nlocal:    1000 ave 1021 max 967 min
Histogram: 1 0 0 0 0 1 0 0 1 1
Nghost:    1074.5 ave 1118 max 1030 min
Histogram: 1 0 0 0 1 1 0 0 0 1
Neighs:    3062.75 ave 3184 max 2904 min
Histogram: 1 0 0 0 1 0 0 1 0 1

Total # of neighbors = 12251
Ave neighs/atom = 3.06275
Ave special neighs/atom = 5.925
Neighbor list builds = 40
Dangerous builds = 0
shell          head -n 2 Temp.txt | tail -n 1 >> Tempfile.txt
shell          head -n 2 Bond.txt | tail -n 1 >> Bondfile.txt
next           myTempStr
next           myBondStr
if "${myBond} <= 0" then "jump imdinput.txt nobonds"
jump           imdinput.txt loop2here

# specifies the run length in timesteps
run            2000
WARNING: Use special bonds = 0,1,1 with bond style fene (../bond_fene.cpp:188)
Memory usage per processor = 5.58222 Mbytes
Step Temp E_pair E_mol TotEng Press 
    8000    1.0022728   0.19140433    20.580643    22.275081   0.33918595 
    8100   0.98195163    0.1924378     20.60403    22.269027   0.32238082 
    8200   0.97381056   0.19162419    20.619995     22.27197   0.48567301 
    8300   0.99974337   0.19500953    20.588996    22.283245   0.31817713 
    8400    1.0109762   0.19579284    20.584488    22.296366   0.46419025 
    8500   0.98043934   0.19710627    20.602938    22.270336   0.31225959 
    8600    0.9914934   0.19974041    20.592967    22.279576   0.36177205 
    8700   0.99497309   0.19924519    20.584407    22.275739   0.38739053 
    8800   0.99559393   0.20015513    20.606562    22.299734   0.34761728 
    8900    1.0135538   0.19794982    20.587711    22.305611   0.46243386 
    9000   0.99353364   0.19751284    20.613797    22.301238  0.074407339 
    9100    1.0198483   0.19233267    20.589597    22.311319   0.25846806 
    9200   0.99604456   0.19014519    20.587906    22.271745   0.27415805 
    9300    1.0000113   0.19135355    20.580058    22.271053   0.56032176 
    9400   0.98657471    0.1953801    20.585221    22.260093   0.27982875 
    9500   0.97095864   0.19748111    20.610763    22.264318   0.20105337 
    9600   0.98467522   0.19575251    20.592677    22.265073   0.28603356 
    9700   0.99256269   0.19501262    20.590675    22.274159   0.37169508 
    9800    1.0055888   0.19536423    20.577811    22.281182      0.34708 
    9900   0.99297626   0.19706451    20.599546    22.285703   0.50161876 
   10000    1.0139646   0.19632679    20.584478    22.301371    0.3233868 
Loop time of 0.461263 on 4 procs (4 MPI x 1 OpenMP) for 2000 steps with 4000 atoms

Pair  time (%) = 0.137061 (29.7142)
Bond  time (%) = 0.0454009 (9.84274)
Neigh time (%) = 0.0267977 (5.80964)
Comm  time (%) = 0.0910572 (19.7408)
Outpt time (%) = 0.000931501 (0.201946)
Other time (%) = 0.160015 (34.6907)

Nlocal:    1000 ave 1036 max 979 min
Histogram: 2 0 0 1 0 0 0 0 0 1
Nghost:    1079.25 ave 1113 max 1047 min
Histogram: 1 0 1 0 0 0 1 0 0 1
Neighs:    3088.75 ave 3278 max 2934 min
Histogram: 1 0 0 1 1 0 0 0 0 1

Total # of neighbors = 12355
Ave neighs/atom = 3.08875
Ave special neighs/atom = 5.925
Neighbor list builds = 41
Dangerous builds = 0
shell          head -n 2 Temp.txt | tail -n 1 >> Tempfile.txt
shell          head -n 2 Bond.txt | tail -n 1 >> Bondfile.txt
next           myTempStr
next           myBondStr
if "${myBond} <= 0" then "jump imdinput.txt nobonds"
jump           imdinput.txt loop2here

# specifies the run length in timesteps
run            2000
WARNING: Use special bonds = 0,1,1 with bond style fene (../bond_fene.cpp:188)
Memory usage per processor = 5.58686 Mbytes
Step Temp E_pair E_mol TotEng Press 
   10000    1.0139646   0.19632679    20.584478    22.301371    0.3233868 
   10100    0.9973006   0.19244165    20.595406    22.283425   0.28048765 
   10200    1.0085558   0.18948253     20.58931    22.291248  0.072219454 
   10300     1.004763   0.18963166    20.583407    22.279807   0.16436408 
   10400    1.0076846    0.1878804    20.586396    22.285425   0.14627537 
   10500    1.0013758   0.18076926    20.592452     22.27491   0.54806544 
   10600    1.0073167   0.18304225     20.60975    22.303389  0.028585187 
   10700    1.0230757    0.1854983    20.581514    22.301243   0.53636329 
   10800   0.99923994   0.18574587    20.617661    22.301892   0.37212597 
   10900    1.0017892   0.18426839    20.606056    22.292632   0.22466722 
   11000    1.0063174   0.18052039    20.589178    22.278797   0.19597721 
   11100   0.99376287   0.18171953    20.599132    22.271124   0.51481094 
   11200     1.005241   0.18369998    20.591904    22.283088   0.45293206 
   11300   0.99357851    0.1880765    20.603928       22.282   0.27225676 
   11400   0.99492322   0.19434283     20.59523    22.281584   0.24786922 
   11500   0.98772266   0.19785454    20.601072     22.28014    0.5018478 
   11600   0.98364957   0.20324929    20.592048    22.270402   0.29912196 
   11700    0.9848775   0.20035894    20.605577    22.282883  0.051973261 
   11800     0.990209   0.19586566    20.607282     22.28809   0.20788104 
   11900   0.99413292     0.193527    20.598975    22.283329   0.27762085 
   12000    1.0066208   0.19162261    20.585486    22.286662   0.51178722 
Loop time of 0.46893 on 4 procs (4 MPI x 1 OpenMP) for 2000 steps with 4000 atoms

Pair  time (%) = 0.137442 (29.3097)
Bond  time (%) = 0.0453846 (9.67834)
Neigh time (%) = 0.0278983 (5.94934)
Comm  time (%) = 0.0962952 (20.5351)
Outpt time (%) = 0.000930727 (0.198479)
Other time (%) = 0.160979 (34.3291)

Nlocal:    1000 ave 1024 max 978 min
Histogram: 1 0 0 0 2 0 0 0 0 1
Nghost:    1034 ave 1076 max 1008 min
Histogram: 1 0 1 1 0 0 0 0 0 1
Neighs:    3103.25 ave 3281 max 2957 min
Histogram: 1 1 0 0 0 0 1 0 0 1

Total # of neighbors = 12413
Ave neighs/atom = 3.10325
Ave special neighs/atom = 5.925
Neighbor list builds = 43
Dangerous builds = 0
shell          head -n 2 Temp.txt | tail -n 1 >> Tempfile.txt
shell          head -n 2 Bond.txt | tail -n 1 >> Bondfile.txt
next           myTempStr
next           myBondStr
if "${myBond} <= 0" then "jump imdinput.txt nobonds"
jump           imdinput.txt loop2here

# specifies the run length in timesteps
run            2000
WARNING: Use special bonds = 0,1,1 with bond style fene (../bond_fene.cpp:188)
Memory usage per processor = 5.58271 Mbytes
Step Temp E_pair E_mol TotEng Press 
   12000    1.0066208   0.19162261    20.585486    22.286662   0.51178722 
   12100   0.99712837   0.18913891    20.597323     22.28178   0.36413645 
   12200    1.0111833   0.18706165    20.579279    22.282736    0.4278978 
   12300    1.0031748   0.19143129    20.602335    22.298153   0.32136506 
   12400   0.99803757   0.19567188    20.604348    22.296702   0.31511423 
   12500    1.0097725   0.19800234    20.589491    22.301774   0.45998815 
   12600    1.0145708   0.19849949    20.594424    22.314399  0.046689107 
   12700    1.0095366   0.19515675    20.598941    22.308024   0.32204039 
   12800    1.0116806   0.19276979    20.600194    22.310105   0.24690038 
   12900      1.00649   0.19050491    20.605563    22.305425  0.088599345 
   13000    1.0116918   0.19011128    20.576674    22.283943   0.55115156 
   13100    1.0042618    0.1930922     20.58979    22.288898    0.4806969 
   13200    1.0191045   0.19617152    20.596021    22.320467   0.34005879 
   13300      1.00362   0.19978215    20.604126    22.308962   0.15505229 
   13400   0.99896803   0.19992524    20.592331    22.290334   0.53854308 
   13500    1.0089863   0.19710294    20.584948    22.295152   0.44440466 
   13600    1.0029885   0.19178104    20.606024    22.301912   0.40236764 
   13700    1.0032799   0.18650153    20.606174    22.297219   0.39121375 
   13800    1.0225462   0.18636895    20.590522    22.310327   0.30532829 
   13900    1.0191187   0.18789813    20.587681    22.303875   0.26474383 
   14000    1.0070005   0.19326016    20.588232    22.291616   0.35508363 
Loop time of 0.466774 on 4 procs (4 MPI x 1 OpenMP) for 2000 steps with 4000 atoms

Pair  time (%) = 0.138099 (29.5857)
Bond  time (%) = 0.0454512 (9.7373)
Neigh time (%) = 0.0278119 (5.95832)
Comm  time (%) = 0.0931133 (19.9483)
Outpt time (%) = 0.000924349 (0.198029)
Other time (%) = 0.161375 (34.5724)

Nlocal:    1000 ave 1033 max 959 min
Histogram: 1 0 0 0 0 1 1 0 0 1
Nghost:    1052 ave 1114 max 1000 min
Histogram: 1 0 0 1 1 0 0 0 0 1
Neighs:    3122.75 ave 3369 max 2735 min
Histogram: 1 0 0 0 0 0 0 2 0 1

Total # of neighbors = 12491
Ave neighs/atom = 3.12275
Ave special neighs/atom = 5.925
Neighbor list builds = 43
Dangerous builds = 0
shell          head -n 2 Temp.txt | tail -n 1 >> Tempfile.txt
shell          head -n 2 Bond.txt | tail -n 1 >> Bondfile.txt
next           myTempStr
next           myBondStr
if "${myBond} <= 0" then "jump imdinput.txt nobonds"
jump           imdinput.txt loop2here

# specifies the run length in timesteps
run            2000
WARNING: Use special bonds = 0,1,1 with bond style fene (../bond_fene.cpp:188)
Memory usage per processor = 5.58588 Mbytes
Step Temp E_pair E_mol TotEng Press 
   14000    1.0070005   0.19326016    20.588232    22.291616   0.35508363 
   14100   0.99114604   0.19769633    20.596624    22.280668   0.16547107 
   14200   0.99035702   0.19740904    20.599554    22.282127   0.31909792 
   14300    0.9989444   0.19811659    20.586083    22.282242   0.41932629 
   14400     1.002098   0.19562419      20.5864    22.284796   0.44473785 
   14500    0.9919119   0.19558729     20.58741    22.270494   0.41632684 
   14600   0.99541542   0.19738926    20.573432    22.263571   0.46518994 
   14700   0.99114646   0.19914161    20.565121    22.250611   0.11595954 
   14800   0.98321829   0.19967985    20.581771     22.25591   0.30901474 
   14900   0.99111517   0.20331142     20.58452    22.274133  0.066907601 
   15000   0.98627526   0.20425319    20.593921    22.277217   0.53729338 
   15100    1.0034101   0.20492875     20.57139    22.281057   0.43232237 
   15200   0.99259456   0.20565885    20.587429    22.281607   0.36864597 
   15300   0.98754413   0.20603058    20.595645    22.282622   0.09316371 
   15400    1.0135635   0.20533478    20.575768    22.301068   0.28429135 
   15500     1.015729   0.20440505    20.566407    22.294024   0.44340495 
   15600   0.99982044   0.20239441    20.586962    22.288712   0.20661458 
   15700    1.0004914   0.20111563     20.58786    22.289338   0.24027364 
   15800    1.0083999   0.20193252    20.577198    22.291352   0.35316345 
   15900   0.98110736   0.20304757    20.616149    22.290489   0.30589365 
   16000   0.98924562   0.20520111     20.60604    22.294739   0.21733004 
Loop time of 0.476581 on 4 procs (4 MPI x 1 OpenMP) for 2000 steps with 4000 atoms

Pair  time (%) = 0.140034 (29.383)
Bond  time (%) = 0.04545 (9.53668)
Neigh time (%) = 0.0295089 (6.19179)
Comm  time (%) = 0.098411 (20.6494)
Outpt time (%) = 0.00094837 (0.198995)
Other time (%) = 0.162229 (34.0402)

Nlocal:    1000 ave 1049 max 945 min
Histogram: 1 0 0 1 0 0 0 1 0 1
Nghost:    1081.5 ave 1145 max 1035 min
Histogram: 2 0 0 0 0 0 1 0 0 1
Neighs:    3171.5 ave 3414 max 2900 min
Histogram: 1 1 0 0 0 0 0 0 0 2

Total # of neighbors = 12686
Ave neighs/atom = 3.1715
Ave special neighs/atom = 5.925
Neighbor list builds = 44
Dangerous builds = 0
shell          head -n 2 Temp.txt | tail -n 1 >> Tempfile.txt
shell          head -n 2 Bond.txt | tail -n 1 >> Bondfile.txt
next           myTempStr
next           myBondStr
if "${myBond} <= 0" then "jump imdinput.txt nobonds"
jump           imdinput.txt loop2here

# specifies the run length in timesteps
run            2000
WARNING: Use special bonds = 0,1,1 with bond style fene (../bond_fene.cpp:188)
Memory usage per processor = 5.58857 Mbytes
Step Temp E_pair E_mol TotEng Press 
   16000   0.98924562   0.20520111     20.60604    22.294739   0.21733004 
   16100    1.0180036   0.20426974    20.583479    22.314372   0.78176517 
   16200     1.008699   0.20329917    20.611203    22.327172   0.26578784 
   16300    1.0036126   0.19840586    20.622822    22.326271  0.051869483 
   16400    1.0252503   0.19780599    20.597097    22.332394   0.44303589 
   16500    1.0124238   0.19971784     20.60735    22.325324   0.42402043 
   16600    1.0295413   0.19772158    20.581887    22.323534   0.51340232 
   16700    1.0245235   0.19574167    20.596534    22.328676   0.22720637 
   16800    1.0112789   0.19416642    20.591622    22.302327   0.27073802 
   16900    1.0195201   0.19503178    20.581263    22.305193   0.27150065 
   17000    1.0080545    0.1968646    20.610759    22.319328   0.28594524 
   17100    1.0193132   0.20142647    20.587508    22.317522   0.26614292 
   17200   0.99438188   0.20539976    20.613181    22.309781   0.30701024 
   17300    1.0010872   0.20293734    20.579853    22.284045   0.51419824 
   17400    1.0060984   0.20260064    20.578687    22.290058    0.3143469 
   17500    1.0044649   0.19771644    20.588571    22.292608   0.41577582 
   17600    1.0086561   0.19632971    20.582895    22.291831   0.29466658 
   17700    1.0017901   0.19476917     20.58684    22.283918   0.18331402 
   17800   0.97732651   0.19437863    20.605684    22.265686   0.24744032 
   17900     1.000309   0.19574921     20.58143    22.277267   0.45457719 
   18000   0.99404928   0.19644597    20.585168    22.272315    0.4741376 
Loop time of 0.465037 on 4 procs (4 MPI x 1 OpenMP) for 2000 steps with 4000 atoms

Pair  time (%) = 0.138619 (29.8082)
Bond  time (%) = 0.0453205 (9.74557)
Neigh time (%) = 0.0266241 (5.72517)
Comm  time (%) = 0.0922369 (19.8343)
Outpt time (%) = 0.000946283 (0.203486)
Other time (%) = 0.16129 (34.6832)

Nlocal:    1000 ave 1011 max 991 min
Histogram: 2 0 0 0 0 0 0 1 0 1
Nghost:    1084 ave 1125 max 1063 min
Histogram: 1 1 1 0 0 0 0 0 0 1
Neighs:    3119.5 ave 3204 max 3022 min
Histogram: 1 0 0 0 0 1 1 0 0 1

Total # of neighbors = 12478
Ave neighs/atom = 3.1195
Ave special neighs/atom = 5.925
Neighbor list builds = 42
Dangerous builds = 0
shell          head -n 2 Temp.txt | tail -n 1 >> Tempfile.txt
shell          head -n 2 Bond.txt | tail -n 1 >> Bondfile.txt
next           myTempStr
next           myBondStr
if "${myBond} <= 0" then "jump imdinput.txt nobonds"
jump           imdinput.txt loop2here

# specifies the run length in timesteps
run            2000
WARNING: Use special bonds = 0,1,1 with bond style fene (../bond_fene.cpp:188)
Memory usage per processor = 5.58051 Mbytes
Step Temp E_pair E_mol TotEng Press 
   18000   0.99404928   0.19644597    20.585168    22.272315    0.4741376 
   18100    0.9977971   0.19491145    20.585456    22.276689   0.29247783 
   18200     1.011966   0.19545282    20.587557    22.300579   0.20463594 
   18300    1.0042845   0.19558726     20.60716    22.308797    0.5016144 
   18400   0.99447404   0.19621863    20.597679    22.285236   0.30665296 
   18500    1.0026637   0.19608847    20.603886    22.303594   0.38627455 
   18600    1.0152824   0.19660035    20.600447     22.31959    0.3858201 
   18700   0.99629267    0.1953122    20.615626    22.305003   0.13553377 
   18800    1.0128168   0.19291948     20.59654    22.308305   0.41350528 
   18900    1.0090076   0.19226664    20.600986    22.306386   0.33146419 
   19000    1.0138722   0.19112618    20.589662    22.301216   0.32622618 
   19100    1.0067478   0.19528821    20.592401    22.297434   0.42344618 
   19200    1.0058905    0.1980145    20.597652    22.304125   0.36346757 
   19300   0.99503274   0.19868141    20.594877    22.285734  0.095988499 
   19400    1.0024363   0.19670508    20.574212    22.274195    0.4705301 
   19500   0.99056052   0.19339806    20.583765    22.262633   0.48683613 
   19600   0.99366618   0.18812115    20.592726    22.270974   0.30056799 
   19700     0.992671   0.18842649    20.585536    22.262596   0.42673556 
   19800   0.98226563   0.18965792    20.580683    22.243371   0.23663246 
   19900   0.98480056    0.1883564    20.579414    22.244602   0.23641729 
   20000   0.98825733   0.18647042    20.584263    22.252749   0.44348894 
Loop time of 0.462316 on 4 procs (4 MPI x 1 OpenMP) for 2000 steps with 4000 atoms

Pair  time (%) = 0.137817 (29.8102)
Bond  time (%) = 0.0454073 (9.8217)
Neigh time (%) = 0.0279384 (6.04313)
Comm  time (%) = 0.0906818 (19.6147)
Outpt time (%) = 0.000951529 (0.205818)
Other time (%) = 0.15952 (34.5045)

Nlocal:    1000 ave 1018 max 980 min
Histogram: 1 1 0 0 0 0 0 0 0 2
Nghost:    1105.5 ave 1153 max 1074 min
Histogram: 1 1 0 0 1 0 0 0 0 1
Neighs:    3046.75 ave 3172 max 2897 min
Histogram: 1 0 0 1 0 0 0 0 1 1

Total # of neighbors = 12187
Ave neighs/atom = 3.04675
Ave special neighs/atom = 5.925
Neighbor list builds = 43
Dangerous builds = 0
shell          head -n 2 Temp.txt | tail -n 1 >> Tempfile.txt
shell          head -n 2 Bond.txt | tail -n 1 >> Bondfile.txt
next           myTempStr
next           myBondStr
if "${myBond} <= 0" then "jump imdinput.txt nobonds"
jump           imdinput.txt loop2here

# specifies the run length in timesteps
run            2000
WARNING: Use special bonds = 0,1,1 with bond style fene (../bond_fene.cpp:188)
Memory usage per processor = 5.58173 Mbytes
Step Temp E_pair E_mol TotEng Press 
   20000   0.98825733   0.18647042    20.584263    22.252749   0.44348894 
   20100   0.98821055   0.18654273    20.574797    22.243285    0.3460879 
   20200    0.9866382   0.18678757    20.573527    22.239902    0.2550133 
   20300    1.0014577   0.18628451    20.568161    22.256257   0.34871305 
   20400    0.9894208   0.18706042    20.576265    22.247085   0.19697594 
   20500   0.98574947   0.18642917    20.576351    22.241035   0.31737459 
   20600   0.99977057   0.18569835    20.586506    22.271485   0.23660855 
   20700    1.0106742   0.18750661    20.570194    22.273333   0.58661589 
   20800   0.99598792   0.18944683    20.585754    22.268809   0.24929733 
   20900   0.98755012   0.18749577    20.582418    22.250868   0.53456669 
   21000    1.0014832   0.18848566    20.577124    22.267459   0.15585239 
   21100    1.0003318    0.1855202    20.587211    22.272854   0.13457394 
   21200    1.0011402   0.18778528     20.58403     22.27315   0.27044981 
   21300    1.0101792   0.19171371    20.585834    22.292438    0.1414629 
   21400    1.0140628   0.19388967    20.603111    22.317714   0.30583927 
   21500    1.0210481   0.19271664    20.589444     22.31335   0.63745228 
   21600    1.0146114   0.19084066    20.608939    22.321317   0.33987466 
   21700     1.021393   0.18449844    20.595964    22.312169   0.30651178 
   21800    1.0159488   0.18308359    20.595287    22.301913   0.24356021 
   21900    1.0162449   0.18450658    20.601626    22.310118   0.11920617 
   22000    1.0094702   0.18422827    20.593983    22.292038   0.44079764 
Loop time of 0.462345 on 4 procs (4 MPI x 1 OpenMP) for 2000 steps with 4000 atoms

Pair  time (%) = 0.135108 (29.2223)
Bond  time (%) = 0.0454981 (9.84074)
Neigh time (%) = 0.0266873 (5.77217)
Comm  time (%) = 0.0946846 (20.4792)
Outpt time (%) = 0.000947654 (0.204967)
Other time (%) = 0.159419 (34.4806)

Nlocal:    1000 ave 1036 max 970 min
Histogram: 1 0 0 1 0 1 0 0 0 1
Nghost:    1115.5 ave 1148 max 1075 min
Histogram: 1 0 0 1 0 0 0 0 0 2
Neighs:    3052.5 ave 3370 max 2822 min
Histogram: 1 0 1 1 0 0 0 0 0 1

Total # of neighbors = 12210
Ave neighs/atom = 3.0525
Ave special neighs/atom = 5.925
Neighbor list builds = 42
Dangerous builds = 0
shell          head -n 2 Temp.txt | tail -n 1 >> Tempfile.txt
shell          head -n 2 Bond.txt | tail -n 1 >> Bondfile.txt
next           myTempStr
next           myBondStr
if "${myBond} <= 0" then "jump imdinput.txt nobonds"
jump           imdinput.txt loop2here

# specifies the run length in timesteps
run            2000
WARNING: Use special bonds = 0,1,1 with bond style fene (../bond_fene.cpp:188)
Memory usage per processor = 5.58637 Mbytes
Step Temp E_pair E_mol TotEng Press 
   22000    1.0094702   0.18422827    20.593983    22.292038   0.44079764 
   22100    1.0148912   0.18576116    20.581297    22.289015   0.55797738 
   22200    1.0000689   0.18580053    20.619786    22.305315   0.23302516 
   22300    1.0010281   0.18869308    20.624569    22.314429   0.25774807 
   22400    1.0052328   0.19348581    20.616145    22.317103   0.33969747 
   22500    1.0083203   0.19714673    20.615484    22.324733   0.32769433 
   22600    1.0101347   0.19537317    20.609688    22.319885   0.41591206 
   22700    1.0081052   0.19190528     20.61739    22.321075  -0.10822792 
   22800    1.0085482   0.18864739    20.612004    22.313096   0.41353717 
   22900    1.0027266   0.18240257     20.62601    22.312126   0.25814257 
   23000    1.0232266   0.18090278    20.617241      22.3326   0.57218732 
   23100    1.0230703   0.18413037    20.614936    22.333288    0.1705858 
   23200    1.0063856   0.18683229    20.617131    22.313164   0.32626267 
   23300    1.0087072   0.18780447     20.61009    22.310577    0.5513446 
   23400    1.0153342   0.18429633    20.608071    22.314988   0.45592923 
   23500    1.0198965    0.1849389    20.608215    22.322616   0.25871071 
   23600    1.0120142   0.18696247    20.616373    22.320977  0.045704734 
   23700    1.0103742   0.18843189    20.605991    22.309606   0.43253831 
   23800    1.0049081   0.18857169    20.618541    22.314098    0.1973442 
   23900    1.0032608   0.18800084    20.610139    22.302655   0.42606563 
   24000   0.99669566    0.1914009    20.619123    22.305194   0.39561143 
Loop time of 0.46628 on 4 procs (4 MPI x 1 OpenMP) for 2000 steps with 4000 atoms

Pair  time (%) = 0.135672 (29.0966)
Bond  time (%) = 0.0452837 (9.71169)
Neigh time (%) = 0.0264566 (5.67397)
Comm  time (%) = 0.0972969 (20.8666)
Outpt time (%) = 0.000938535 (0.201281)
Other time (%) = 0.160632 (34.4498)

Nlocal:    1000 ave 1040 max 966 min
Histogram: 1 0 1 0 0 0 1 0 0 1
Nghost:    1071.75 ave 1095 max 1046 min
Histogram: 1 0 0 1 0 0 0 1 0 1
Neighs:    3042 ave 3260 max 2841 min
Histogram: 1 0 0 0 2 0 0 0 0 1

Total # of neighbors = 12168
Ave neighs/atom = 3.042
Ave special neighs/atom = 5.925
Neighbor list builds = 41
Dangerous builds = 0
shell          head -n 2 Temp.txt | tail -n 1 >> Tempfile.txt
shell          head -n 2 Bond.txt | tail -n 1 >> Bondfile.txt
next           myTempStr
next           myBondStr
if "${myBond} <= 0" then "jump imdinput.txt nobonds"
jump           imdinput.txt loop2here

# specifies the run length in timesteps
run            2000
WARNING: Use special bonds = 0,1,1 with bond style fene (../bond_fene.cpp:188)
Memory usage per processor = 5.5871 Mbytes
Step Temp E_pair E_mol TotEng Press 
   24000   0.99669566    0.1914009    20.619123    22.305194   0.39561143 
   24100    1.0112658   0.19103904    20.590937    22.298496   0.17316141 
   24200    1.0166734    0.1907953    20.592234    22.307659   0.39483236 
   24300    1.0032702   0.18986131    20.612888    22.307278   0.39191233 
   24400    1.0089603   0.18704923    20.588428    22.288539   0.25659366 
   24500    0.9957463   0.18430688    20.576459    22.254012   0.15337787 
   24600   0.99054611    0.1847563    20.587428    22.257632   0.47922668 
   24700   0.99265732   0.18889297    20.599894      22.2774   0.16893524 
   24800    1.0084534   0.18921366    20.596159    22.297675   0.43894554 
   24900   0.99866474   0.18969554    20.597253    22.284572   0.29627477 
   25000    1.0032022   0.19020901    20.576656    22.271292   0.45538361 
   25100   0.98389457    0.1939145     20.60726    22.276648  0.088627234 
   25200      0.99908   0.19978984    20.599062    22.297097   0.35565058 
   25300    1.0002354   0.20669773    20.593016    22.299691   0.35216557 
   25400    1.0006777   0.20529158    20.576635    22.282568   0.52613537 
   25500   0.98728209   0.20050639    20.574796    22.255856   0.13114602 
   25600    0.9955899   0.19491282    20.565711    22.253635   0.32569105 
   25700    0.9879474   0.18869251    20.575092    22.245335   0.26214024 
   25800    1.0031484   0.18458877    20.558198    22.247134   0.45494485 
   25900   0.99510181   0.18594089    20.578161    22.256381   0.18896504 
   26000    0.9945803   0.18927944     20.57244    22.253217   0.35901257 
Loop time of 0.468464 on 4 procs (4 MPI x 1 OpenMP) for 2000 steps with 4000 atoms

Pair  time (%) = 0.136813 (29.2046)
Bond  time (%) = 0.0457996 (9.77656)
Neigh time (%) = 0.0275712 (5.88545)
Comm  time (%) = 0.0960581 (20.5049)
Outpt time (%) = 0.00102586 (0.218983)
Other time (%) = 0.161196 (34.4095)

Nlocal:    1000 ave 1056 max 965 min
Histogram: 1 1 0 0 1 0 0 0 0 1
Nghost:    1059.25 ave 1074 max 1048 min
Histogram: 1 1 0 0 0 1 0 0 0 1
Neighs:    3061 ave 3479 max 2812 min
Histogram: 1 1 0 1 0 0 0 0 0 1

Total # of neighbors = 12244
Ave neighs/atom = 3.061
Ave special neighs/atom = 5.925
Neighbor list builds = 42
Dangerous builds = 0
shell          head -n 2 Temp.txt | tail -n 1 >> Tempfile.txt
shell          head -n 2 Bond.txt | tail -n 1 >> Bondfile.txt
next           myTempStr
next           myBondStr
if "${myBond} <= 0" then "jump imdinput.txt nobonds"
jump           imdinput.txt loop2here

# specifies the run length in timesteps
run            2000
WARNING: Use special bonds = 0,1,1 with bond style fene (../bond_fene.cpp:188)
Memory usage per processor = 5.59052 Mbytes
Step Temp E_pair E_mol TotEng Press 
   26000    0.9945803   0.18927944     20.57244    22.253217   0.35901257 
   26100    1.0047769   0.19165171    20.556987    22.255427   0.39205999 
   26200   0.98371644   0.19243398    20.576789    22.244429 -0.006868825 
   26300   0.99313434   0.18646715    20.580676    22.256472   0.46797056 
   26400   0.97846626   0.18165967    20.595418     22.24441   0.28099779 
   26500   0.99043698   0.18178047    20.576235    22.243299   0.41560738 
   26600   0.97313928   0.18473638    20.590488    22.234569   0.35313368 
   26700   0.99465352    0.1869384    20.582846    22.261392   0.10564479 
   26800   0.98400321   0.18921183    20.590141    22.254988   0.25570805 
   26900   0.99581267   0.19314505    20.575359     22.26185   0.14513631 
   27000   0.98393641   0.19434815    20.581644    22.251528   0.56888878 
   27100   0.99421021   0.19522087    20.584747     22.27091   0.44130618 
   27200    1.0038015   0.19625709    20.591019    22.292602   0.19809093 
   27300    1.0090201    0.1924723    20.577241    22.282865   0.42130408 
   27400    1.0116372   0.19275916    20.565541    22.275377   0.51253149 
   27500   0.99682192   0.19274516    20.583614    22.271218   0.16867799 
   27600    1.0099883   0.19341529    20.571336    22.279355   0.32228668 
   27700    1.0001283   0.19761417    20.586431    22.283862   0.45288448 
   27800   0.99534695   0.20298734    20.586599    22.282234   0.15005212 
   27900   0.99971837   0.20660967    20.577242    22.283055   0.30258906 
   28000   0.99488238   0.20678617    20.597165    22.295902   0.31354857 
Loop time of 0.462767 on 4 procs (4 MPI x 1 OpenMP) for 2000 steps with 4000 atoms

Pair  time (%) = 0.136954 (29.5947)
Bond  time (%) = 0.0453736 (9.80486)
Neigh time (%) = 0.0278963 (6.02817)
Comm  time (%) = 0.0932386 (20.1481)
Outpt time (%) = 0.000935972 (0.202256)
Other time (%) = 0.158368 (34.222)

Nlocal:    1000 ave 1036 max 963 min
Histogram: 1 0 0 1 0 0 1 0 0 1
Nghost:    1084.75 ave 1126 max 1031 min
Histogram: 1 0 0 0 1 0 0 0 1 1
Neighs:    3147 ave 3314 max 2895 min
Histogram: 1 0 0 0 1 0 0 0 0 2

Total # of neighbors = 12588
Ave neighs/atom = 3.147
Ave special neighs/atom = 5.925
Neighbor list builds = 42
Dangerous builds = 0
shell          head -n 2 Temp.txt | tail -n 1 >> Tempfile.txt
shell          head -n 2 Bond.txt | tail -n 1 >> Bondfile.txt
next           myTempStr
next           myBondStr
if "${myBond} <= 0" then "jump imdinput.txt nobonds"
jump           imdinput.txt loop2here

# specifies the run length in timesteps
run            2000
WARNING: Use special bonds = 0,1,1 with bond style fene (../bond_fene.cpp:188)
Memory usage per processor = 5.5854 Mbytes
Step Temp E_pair E_mol TotEng Press 
   28000   0.99488238   0.20678617    20.597165    22.295902   0.31354857 
   28100    1.0020554   0.20507953    20.592053     22.29984   0.36446074 
   28200     1.018055   0.20104203    20.582085    22.309828   0.10237572 
   28300    1.0088949   0.19792627    20.598204    22.309095   0.54852858 
   28400    1.0140388   0.19571899    20.592136    22.308533   0.43237817 
   28500    1.0120594   0.19729603    20.589283    22.304289   0.31355322 
   28600    1.0102035   0.19887746    20.598684    22.312488   0.38979873 
   28700    1.0038741   0.20287342    20.590149    22.298457   0.22017316 
   28800     1.002619   0.20260251    20.588615     22.29477   0.37832208 
   28900    1.0196198    0.2030568    20.571626    22.303731   0.40597375 
   29000   0.99933797   0.20196908    20.591744    22.292345   0.28833534 
   29100   0.98815321     0.198646    20.592033    22.272538   0.27147955 
   29200   0.98509902   0.19829512    20.598945    22.274519   0.42228531 
   29300    0.9857252   0.19994319    20.580361    22.258522   0.24938245 
   29400   0.98249451   0.19688336    20.589871    22.260128   0.56960078 
   29500   0.98630912   0.18982735     20.58312    22.252041    0.3602134 
   29600   0.99335821   0.18983731    20.588598      22.2681   0.24204307 
   29700    1.0023282   0.19083225    20.582833    22.276781   0.36360164 
   29800   0.99149913   0.19137797     20.59679    22.275045  0.082639554 
   29900   0.99866638   0.19213059    20.599598    22.289354   0.55022098 
   30000    1.0041537   0.19706085    20.593188    22.296103   0.21865045 
Loop time of 0.472431 on 4 procs (4 MPI x 1 OpenMP) for 2000 steps with 4000 atoms

Pair  time (%) = 0.139357 (29.4978)
Bond  time (%) = 0.0455066 (9.63243)
Neigh time (%) = 0.0283558 (6.0021)
Comm  time (%) = 0.0969602 (20.5237)
Outpt time (%) = 0.000938952 (0.198749)
Other time (%) = 0.161313 (34.1452)

Nlocal:    1000 ave 1065 max 952 min
Histogram: 1 0 1 0 1 0 0 0 0 1
Nghost:    1074.75 ave 1117 max 1044 min
Histogram: 1 1 0 0 0 1 0 0 0 1
Neighs:    3117 ave 3376 max 2890 min
Histogram: 1 0 1 0 0 1 0 0 0 1

Total # of neighbors = 12468
Ave neighs/atom = 3.117
Ave special neighs/atom = 5.925
Neighbor list builds = 42
Dangerous builds = 0
shell          head -n 2 Temp.txt | tail -n 1 >> Tempfile.txt
shell          head -n 2 Bond.txt | tail -n 1 >> Bondfile.txt
next           myTempStr
next           myBondStr
if "${myBond} <= 0" then "jump imdinput.txt nobonds"
jump           imdinput.txt loop2here

# specifies the run length in timesteps
run            2000
WARNING: Use special bonds = 0,1,1 with bond style fene (../bond_fene.cpp:188)
Memory usage per processor = 5.59223 Mbytes
Step Temp E_pair E_mol TotEng Press 
   30000    1.0041537   0.19706085    20.593188    22.296103   0.21865045 
   30100    1.0083854   0.19738321    20.599674    22.309257   0.53226279 
   30200   0.99960146   0.19880011    20.604703     22.30253   0.38169845 
   30300    1.0061498   0.19969613    20.601196    22.309739   0.23358913 
   30400    1.0064939   0.19956056    20.587059    22.295983   0.44204448 
   30500   0.99594697   0.19537138    20.594875    22.283793   0.38655416 
   30600   0.99348269   0.18983711    20.577908    22.257597  0.039118778 
   30700   0.99137399   0.18731446    20.579003    22.253006    0.1753914 
   30800   0.99969797   0.18376126     20.56664    22.249573   0.58355488 
   30900   0.98828126   0.18871338    20.582635    22.253399   0.17463091 
   31000   0.97813118   0.19307294    20.585983    22.245885   0.62403364 
   31100   0.98104212   0.19402143    20.589454    22.254671   0.19239237 
   31200   0.98041722   0.18900387    20.587922    22.247184   0.23005646 
   31300   0.98814993   0.18744762     20.57882    22.248122   0.37905061 
   31400   0.97856671    0.1913093    20.583387     22.24218     0.299839 
   31500   0.99485869   0.19622626     20.56535    22.253491   0.36711352 
   31600   0.97912247   0.19913101    20.579988    22.247436   0.55749248 
   31700    0.9790244     0.197472    20.590481    22.256122 0.0079032241 
   31800   0.98840262   0.18916843    20.578928     22.25033   0.51689842 
   31900   0.99216327   0.18642925    20.582206    22.256508   0.35492319 
   32000   0.99127645   0.18518665    20.581661    22.253391   0.25203894 
Loop time of 0.464292 on 4 procs (4 MPI x 1 OpenMP) for 2000 steps with 4000 atoms

Pair  time (%) = 0.13766 (29.6495)
Bond  time (%) = 0.0457972 (9.86388)
Neigh time (%) = 0.0272177 (5.86219)
Comm  time (%) = 0.0917387 (19.7588)
Outpt time (%) = 0.000933945 (0.201155)
Other time (%) = 0.160944 (34.6644)

Nlocal:    1000 ave 1034 max 983 min
Histogram: 2 0 1 0 0 0 0 0 0 1
Nghost:    1072 ave 1097 max 1050 min
Histogram: 1 1 0 0 0 0 0 1 0 1
Neighs:    3083.5 ave 3360 max 2945 min
Histogram: 2 0 0 1 0 0 0 0 0 1

Total # of neighbors = 12334
Ave neighs/atom = 3.0835
Ave special neighs/atom = 5.925
Neighbor list builds = 42
Dangerous builds = 0
shell          head -n 2 Temp.txt | tail -n 1 >> Tempfile.txt
shell          head -n 2 Bond.txt | tail -n 1 >> Bondfile.txt
next           myTempStr
next           myBondStr
if "${myBond} <= 0" then "jump imdinput.txt nobonds"
jump           imdinput.txt loop2here

# specifies the run length in timesteps
run            2000
WARNING: Use special bonds = 0,1,1 with bond style fene (../bond_fene.cpp:188)
Memory usage per processor = 5.5854 Mbytes
Step Temp E_pair E_mol TotEng Press 
   32000   0.99127645   0.18518665    20.581661    22.253391   0.25203894 
   32100   0.99361355   0.18741957    20.587074    22.264541   0.36590031 
   32200   0.99516495   0.18790283    20.587147    22.267424   0.21434085 
   32300     1.000133   0.18583313    20.604837    22.290495   0.39751988 
   32400    1.0149544   0.18437109    20.581527    22.287949   0.51839291 
   32500    1.0158919   0.18738989      20.5809    22.291747   0.21821075 
   32600   0.99705549   0.19084572    20.581132    22.267187    0.2611169 
   32700     1.003159   0.19001885    20.589427    22.283808   0.24331777 
   32800   0.99605862   0.18869948    20.592074    22.274488   0.32357281 
   32900    1.0085458   0.18546994    20.588314    22.286224   0.44260059 
   33000    1.0001804   0.18656875    20.602977    22.289442   0.18995268 
   33100   0.98931336     0.189206    20.613479    22.286284   0.23639126 
   33200    0.9903012   0.19130521    20.593504    22.269889     0.467495 
   33300    0.9924702   0.19386083    20.591828    22.274022   0.48535036 
   33400   0.98831652   0.19792119    20.599341    22.279366   0.31259391 
   33500   0.98708643   0.19664586    20.590708    22.267613    0.2846151 
   33600   0.98691557   0.19748927    20.588094    22.265587   0.36325056 
   33700   0.98139828   0.20252397    20.595689    22.269942   0.25650554 
   33800    1.0026665   0.20395719     20.56874    22.276321   0.28775113 
   33900   0.99861443   0.20041299    20.565229     22.26319   0.34779632 
   34000   0.97757946   0.20053979    20.608037     22.27458   0.15059239 
Loop time of 0.468731 on 4 procs (4 MPI x 1 OpenMP) for 2000 steps with 4000 atoms

Pair  time (%) = 0.137813 (29.4013)
Bond  time (%) = 0.0456423 (9.73742)
Neigh time (%) = 0.027164 (5.79522)
Comm  time (%) = 0.0956405 (20.4041)
Outpt time (%) = 0.000972331 (0.207439)
Other time (%) = 0.161499 (34.4545)

Nlocal:    1000 ave 1046 max 974 min
Histogram: 1 1 1 0 0 0 0 0 0 1
Nghost:    1037.75 ave 1083 max 1010 min
Histogram: 2 0 0 0 1 0 0 0 0 1
Neighs:    3110 ave 3451 max 2903 min
Histogram: 1 1 0 1 0 0 0 0 0 1

Total # of neighbors = 12440
Ave neighs/atom = 3.11
Ave special neighs/atom = 5.925
Neighbor list builds = 43
Dangerous builds = 0
shell          head -n 2 Temp.txt | tail -n 1 >> Tempfile.txt
shell          head -n 2 Bond.txt | tail -n 1 >> Bondfile.txt
next           myTempStr
next           myBondStr
if "${myBond} <= 0" then "jump imdinput.txt nobonds"
jump           imdinput.txt loop2here

# specifies the run length in timesteps
run            2000
WARNING: Use special bonds = 0,1,1 with bond style fene (../bond_fene.cpp:188)
Memory usage per processor = 5.58833 Mbytes
Step Temp E_pair E_mol TotEng Press 
   34000   0.97757946   0.20053979    20.608037     22.27458   0.15059239 
   34100    1.0094412   0.19763244    20.581751    22.293167   0.43622611 
   34200    1.0100645     0.200146    20.587946     22.30281    0.2513523 
   34300    1.0241101   0.20057347    20.590871    22.327225    0.6036743 
   34400    1.0113451   0.20236224    20.597829    22.316829   0.19445001 
   34500    1.0222882   0.20585442    20.581458    22.320361   0.23973119 
   34600    1.0063194    0.2027538    20.591065    22.302921   0.22589559 
   34700    1.0225737   0.20158235    20.586376    22.321436   0.40659507 
   34800    1.0105472   0.20101371    20.595625     22.31208   0.18479721 
   34900    1.0103662   0.19869124    20.581847    22.295709   0.58257714 
   35000    1.0059938   0.19643782    20.599053    22.304104   0.12386456 
   35100    1.0065597   0.19576105    20.587649    22.292872   0.41750109 
   35200   0.99152631   0.19724416    20.588117    22.272278   0.36366564 
   35300    1.0043118   0.20305896    20.573614    22.282764    0.1510047 
   35400    1.0003316   0.20390763    20.585371    22.289401   0.49167318 
   35500   0.99859088    0.2025793    20.593701    22.293792   0.27146275 
   35600     1.003132   0.20225344    20.599999    22.306575   0.19233446 
   35700    1.0232778   0.20347516    20.592006    22.330014   0.18858515 
   35800    1.0377149   0.19961816    20.580032    22.335833   0.51508749 
   35900    1.0149945   0.20196515    20.600262    22.324338   0.30800578 
   36000    1.0316122    0.2003096    20.583094    22.330435   0.21624592 
Loop time of 0.469225 on 4 procs (4 MPI x 1 OpenMP) for 2000 steps with 4000 atoms

Pair  time (%) = 0.140388 (29.9192)
Bond  time (%) = 0.0453938 (9.67422)
Neigh time (%) = 0.0274225 (5.84422)
Comm  time (%) = 0.0940027 (20.0336)
Outpt time (%) = 0.00092113 (0.196309)
Other time (%) = 0.161096 (34.3324)

Nlocal:    1000 ave 1041 max 977 min
Histogram: 1 1 1 0 0 0 0 0 0 1
Nghost:    1063 ave 1122 max 1011 min
Histogram: 1 1 0 0 0 0 0 1 0 1
Neighs:    3121 ave 3454 max 2955 min
Histogram: 1 1 1 0 0 0 0 0 0 1

Total # of neighbors = 12484
Ave neighs/atom = 3.121
Ave special neighs/atom = 5.925
Neighbor list builds = 42
Dangerous builds = 0
shell          head -n 2 Temp.txt | tail -n 1 >> Tempfile.txt
shell          head -n 2 Bond.txt | tail -n 1 >> Bondfile.txt
next           myTempStr
next           myBondStr
if "${myBond} <= 0" then "jump imdinput.txt nobonds"
jump           imdinput.txt loop2here

# specifies the run length in timesteps
run            2000
WARNING: Use special bonds = 0,1,1 with bond style fene (../bond_fene.cpp:188)
Memory usage per processor = 5.58637 Mbytes
Step Temp E_pair E_mol TotEng Press 
   36000    1.0316122    0.2003096    20.583094    22.330435   0.21624592 
   36100    1.0242077   0.19993681    20.583684    22.319549   0.50305981 
   36200    1.0233159   0.19968306    20.583045    22.317318   0.19172324 
   36300    1.0137693    0.1971997    20.604662    22.322136   0.45774803 
   36400    1.0136409   0.19657667    20.607657    22.324314   0.32014221 
   36500    1.0379184   0.19470519    20.602425    22.353619   0.28031373 
   36600    1.0288782   0.19326491    20.593189    22.329385   0.17187579 
   36700    1.0250009   0.18749344    20.598002    22.322612    0.2533488 
   36800    1.0196039   0.18802996    20.602293    22.319346   0.48218886 
   36900    1.0281684   0.19000804    20.599074    22.330949   0.37542744 
   37000    1.0283633   0.19030521    20.596571    22.329036   0.35637065 
   37100    1.0234437    0.1902477    20.598082    22.323111   0.22589559 
   37200   0.99705663   0.19040886    20.607794    22.293414    0.4425296 
   37300    1.0099007   0.19440568    20.587041    22.295919   0.34326708 
   37400    1.0119824    0.1954913    20.593686    22.306771   0.29019258 
   37500    1.0176403   0.19999969    20.592545    22.318624   0.46981595 
   37600     1.023646   0.20083367    20.608226    22.344145   0.27431206 
   37700    1.0275807   0.19817994    20.609719    22.348884   0.32227024 
   37800    1.0337987   0.19545835    20.603196    22.348965   0.45909803 
   37900    1.0313257   0.19277651    20.604436    22.343814   0.19342423 
   38000    1.0156243   0.19278446    20.613566    22.329406   0.43646661 
Loop time of 0.465448 on 4 procs (4 MPI x 1 OpenMP) for 2000 steps with 4000 atoms

Pair  time (%) = 0.137934 (29.6347)
Bond  time (%) = 0.0455354 (9.78314)
Neigh time (%) = 0.0262398 (5.63753)
Comm  time (%) = 0.094682 (20.3421)
Outpt time (%) = 0.000965714 (0.207481)
Other time (%) = 0.160091 (34.395)

Nlocal:    1000 ave 1042 max 961 min
Histogram: 1 0 0 1 0 1 0 0 0 1
Nghost:    1060.25 ave 1100 max 1027 min
Histogram: 1 0 1 0 0 1 0 0 0 1
Neighs:    3086.75 ave 3402 max 2812 min
Histogram: 1 0 0 0 2 0 0 0 0 1

Total # of neighbors = 12347
Ave neighs/atom = 3.08675
Ave special neighs/atom = 5.925
Neighbor list builds = 42
Dangerous builds = 0
shell          head -n 2 Temp.txt | tail -n 1 >> Tempfile.txt
shell          head -n 2 Bond.txt | tail -n 1 >> Bondfile.txt
next           myTempStr
next           myBondStr
if "${myBond} <= 0" then "jump imdinput.txt nobonds"
jump           imdinput.txt loop2here

# specifies the run length in timesteps
run            2000
WARNING: Use special bonds = 0,1,1 with bond style fene (../bond_fene.cpp:188)
Memory usage per processor = 5.58735 Mbytes
Step Temp E_pair E_mol TotEng Press 
   38000    1.0156243   0.19278446    20.613566    22.329406   0.43646661 
   38100    1.0083664   0.19461135    20.622936    22.329718   0.42911015 
   38200    1.0333298   0.19265045    20.603102    22.345359   0.25755317 
   38300    1.0406317   0.19188304    20.587904    22.340344   0.12310772 
   38400    1.0431259   0.19273139    20.604392    22.361421   0.37249378 
   38500    1.0528256   0.19677738    20.598597    22.374218   0.54512631 
   38600    1.0338858   0.19626611    20.612676    22.359384   0.30168035 
   38700    1.0371413   0.19656455    20.612659    22.364547   0.27169619 
   38800    1.0374441    0.1955244    20.607034    22.358336    0.3709073 
   38900    1.0464536   0.19662063    20.604808    22.370717   0.26243373 
   39000    1.0410273   0.19373417    20.618806    22.373691   0.39987891 
   39100    1.0330212   0.19446866    20.622145    22.365758    0.2198965 
   39200    1.0296918   0.19885807    20.605534    22.348544   0.45586664 
   39300    1.0106778   0.20581404    20.610473    22.331925   0.34727798 
   39400    1.0141402   0.20482215     20.61505    22.340703   0.45243073 
   39500    1.0277476   0.19997693    20.608137     22.34935   0.31085696 
   39600      1.02612   0.19575546    20.615465    22.350015   0.22088584 
   39700    1.0154355   0.19614965    20.624458     22.34338   0.21546337 
   39800    1.0218525   0.19353805    20.596626     22.32256   0.49519046 
   39900    1.0037054   0.19616537    20.612935    22.314282   0.26748908 
   40000    1.0173256   0.19346026     20.58807    22.307137   0.56292438 
Loop time of 0.461941 on 4 procs (4 MPI x 1 OpenMP) for 2000 steps with 4000 atoms

Pair  time (%) = 0.138649 (30.0145)
Bond  time (%) = 0.0455238 (9.8549)
Neigh time (%) = 0.026408 (5.71675)
Comm  time (%) = 0.0916196 (19.8336)
Outpt time (%) = 0.00102806 (0.222553)
Other time (%) = 0.158712 (34.3577)

Nlocal:    1000 ave 1046 max 948 min
Histogram: 1 0 0 1 0 0 0 1 0 1
Nghost:    1074.25 ave 1102 max 1028 min
Histogram: 1 0 0 0 0 0 0 2 0 1
Neighs:    3112.75 ave 3352 max 2849 min
Histogram: 1 0 0 0 1 0 1 0 0 1

Total # of neighbors = 12451
Ave neighs/atom = 3.11275
Ave special neighs/atom = 5.925
Neighbor list builds = 42
Dangerous builds = 0
shell          head -n 2 Temp.txt | tail -n 1 >> Tempfile.txt
shell          head -n 2 Bond.txt | tail -n 1 >> Bondfile.txt
next           myTempStr
next           myBondStr
if "${myBond} <= 0" then "jump imdinput.txt nobonds"
jump           imdinput.txt loop2here

# specifies the run length in timesteps
run            2000
WARNING: Use special bonds = 0,1,1 with bond style fene (../bond_fene.cpp:188)
Memory usage per processor = 5.58857 Mbytes
Step Temp E_pair E_mol TotEng Press 
   40000    1.0173256   0.19346026     20.58807    22.307137   0.56292438 
   40100   0.99969639   0.19382229    20.601239    22.294231   0.32023411 
   40200   0.98854969   0.19101543    20.613364    22.286834   0.24122335 
   40300   0.99554017   0.19064033    20.601196    22.284774    0.3738896 
   40400    1.0076453   0.18823314    20.602034    22.301358   0.36309241 
   40500    1.0048379   0.18752808    20.607161    22.301569   0.29184996 
   40600    1.0137267   0.18744935    20.606388    22.314047   0.39454935 
   40700     1.011034   0.18953747    20.607463    22.313173   0.49752661 
   40800    1.0298513   0.19173241    20.580857    22.316981    0.1941917 
   40900    1.0133465   0.18857729    20.604288    22.312505   0.32058913 
   41000    1.0255101   0.18908913    20.594729    22.321698   0.22988004 
   41100    1.0150004   0.18691251    20.591945    22.300978   0.37506988 
   41200    1.0123883   0.18559182    20.591102    22.294896   0.51229017 
   41300    1.0149579   0.18690518    20.586662    22.295624   0.37589729 
   41400   0.99303357   0.18908382      20.5896    22.267862   0.24122702 
   41500   0.99802015   0.19053168    20.583056    22.270244    0.3613818 
   41600   0.99234909   0.18917419    20.591946    22.269271   0.45999452 
   41700    1.0015822   0.18777048    20.592208    22.281976   0.21751002 
   41800    1.0074082   0.18855183    20.600761    22.300047  0.017904684 
   41900    1.0025294   0.19075315    20.609503    22.303674   0.62057766 
   42000    1.0112769   0.19537552    20.592424    22.304335   0.59711495 
Loop time of 0.455618 on 4 procs (4 MPI x 1 OpenMP) for 2000 steps with 4000 atoms

Pair  time (%) = 0.136855 (30.0373)
Bond  time (%) = 0.0454497 (9.97539)
Neigh time (%) = 0.0255042 (5.59772)
Comm  time (%) = 0.0883822 (19.3983)
Outpt time (%) = 0.000918269 (0.201544)
Other time (%) = 0.158509 (34.7898)

Nlocal:    1000 ave 1029 max 980 min
Histogram: 1 0 0 2 0 0 0 0 0 1
Nghost:    1083.5 ave 1116 max 1052 min
Histogram: 1 0 1 0 0 0 1 0 0 1
Neighs:    3086 ave 3224 max 2923 min
Histogram: 1 0 0 0 1 0 0 1 0 1

Total # of neighbors = 12344
Ave neighs/atom = 3.086
Ave special neighs/atom = 5.925
Neighbor list builds = 41
Dangerous builds = 0
shell          head -n 2 Temp.txt | tail -n 1 >> Tempfile.txt
shell          head -n 2 Bond.txt | tail -n 1 >> Bondfile.txt
next           myTempStr
next           myBondStr
if "${myBond} <= 0" then "jump imdinput.txt nobonds"
jump           imdinput.txt loop2here

# specifies the run length in timesteps
run            2000
WARNING: Use special bonds = 0,1,1 with bond style fene (../bond_fene.cpp:188)
Memory usage per processor = 5.58344 Mbytes
Step Temp E_pair E_mol TotEng Press 
   42000    1.0112769   0.19537552    20.592424    22.304335   0.59711495 
   42100    1.0149883   0.20156909    20.599303    22.322974   0.45381007 
   42200    1.0017888   0.20316824    20.603588    22.309064    0.1262003 
   42300    1.0000581   0.19975395      20.6001    22.299566   0.32240246 
   42400   0.98934472     0.201034     20.60909     22.29377   0.26658372 
   42500   0.98669716   0.20578995    20.604877    22.290343   0.39488656 
   42600   0.98874886      0.20454    20.587033    22.274325   0.43769403 
   42700    1.0015021   0.20253379    20.570518     22.27493   0.51532828 
   42800   0.99474131   0.20285092    20.595194    22.289784   0.16013259 
   42900   0.99609779   0.20140146    20.603772    22.298946   0.24178497 
   43000    1.0034164   0.20081816    20.604176    22.309743    0.2720543 
   43100   0.99994618   0.20515417    20.615147    22.319846   0.57784787 
   43200    1.0060751   0.20867478    20.602998    22.320408   0.48415757 
   43300    1.0095534   0.20817834    20.591458    22.313588   0.50015912 
   43400    1.0075862   0.20902668    20.595545    22.315574  0.020563966 
   43500    1.0040609   0.20647913    20.593085    22.305279   0.25028827 
   43600    1.0051018   0.20709766    20.596006    22.310379   0.61978624 
   43700     1.009721   0.20899868    20.585866    22.309067   0.32754348 
   43800      1.00505    0.2063565    20.599997    22.313551   0.26805813 
   43900   0.99750732   0.20295219    20.605167    22.304006    0.2070249 
   44000    1.0092347     0.201367    20.593826    22.308667   0.50930504 
Loop time of 0.465958 on 4 procs (4 MPI x 1 OpenMP) for 2000 steps with 4000 atoms

Pair  time (%) = 0.141428 (30.3521)
Bond  time (%) = 0.045301 (9.72213)
Neigh time (%) = 0.0269713 (5.78837)
Comm  time (%) = 0.0911554 (19.563)
Outpt time (%) = 0.000935733 (0.200819)
Other time (%) = 0.160166 (34.3735)

Nlocal:    1000 ave 1028 max 984 min
Histogram: 1 0 2 0 0 0 0 0 0 1
Nghost:    1057.25 ave 1072 max 1022 min
Histogram: 1 0 0 0 0 0 0 0 1 2
Neighs:    3087.75 ave 3325 max 2920 min
Histogram: 1 1 0 0 1 0 0 0 0 1

Total # of neighbors = 12351
Ave neighs/atom = 3.08775
Ave special neighs/atom = 5.925
Neighbor list builds = 42
Dangerous builds = 0
shell          head -n 2 Temp.txt | tail -n 1 >> Tempfile.txt
shell          head -n 2 Bond.txt | tail -n 1 >> Bondfile.txt
next           myTempStr
next           myBondStr
if "${myBond} <= 0" then "jump imdinput.txt nobonds"
jump           imdinput.txt loop2here

# specifies the run length in timesteps
run            2000
WARNING: Use special bonds = 0,1,1 with bond style fene (../bond_fene.cpp:188)
Memory usage per processor = 5.58271 Mbytes
Step Temp E_pair E_mol TotEng Press 
   44000    1.0092347     0.201367    20.593826    22.308667   0.50930504 
   44100    1.0043081   0.19932606    20.605021    22.310432   0.16752043 
   44200    1.0214979    0.1962576     20.58372    22.311842   0.61233535 
   44300      1.01648   0.19296645    20.591511    22.308817   0.22292044 
   44400    1.0149683   0.19195557    20.601002    22.315029   0.25838445 
   44500    1.0295645   0.19154415    20.592082    22.327587   0.50513511 
   44600    1.0102614   0.19332554    20.616682    22.325021   0.34183408 
   44700    1.0081019   0.19960369    20.617752     22.32913   0.30581233 
   44800    1.0166014   0.19993085    20.598543    22.322995   0.37446046 
   44900    1.0179944   0.19845678     20.59439    22.319457   0.27153427 
   45000    1.0065662   0.19470244    20.606707    22.310882   0.38488247 
   45100    1.0017115   0.19543073    20.608162    22.305784   0.40578209 
   45200    1.0128053   0.19751539    20.599141    22.315485  0.079632607 
   45300    1.0186253   0.19491567    20.600616    22.323087    0.3693678 
   45400    1.0141754   0.19021605    20.609146    22.320245   0.30834397 
   45500    1.0333389    0.1854205      20.5916    22.326642   0.26683408 
   45600    1.0189679   0.18272633    20.620075    22.330871   0.53162045 
   45700    1.0225223    0.1806396    20.614495    22.328535   0.17609631 
   45800    1.0304118   0.18026271    20.591383    22.316877   0.72583802 
   45900    1.0350994   0.18232728    20.594772    22.329361   0.12161175 
   46000    1.0189109   0.18681917    20.606519    22.321323   0.25131874 
Loop time of 0.454475 on 4 procs (4 MPI x 1 OpenMP) for 2000 steps with 4000 atoms

Pair  time (%) = 0.137145 (30.1766)
Bond  time (%) = 0.0452545 (9.95752)
Neigh time (%) = 0.0263062 (5.78825)
Comm  time (%) = 0.087038 (19.1513)
Outpt time (%) = 0.000923514 (0.203204)
Other time (%) = 0.157808 (34.7232)

Nlocal:    1000 ave 1024 max 988 min
Histogram: 2 0 0 1 0 0 0 0 0 1
Nghost:    1058.25 ave 1071 max 1041 min
Histogram: 1 0 0 0 1 0 0 0 0 2
Neighs:    3091 ave 3206 max 2939 min
Histogram: 1 0 0 0 0 1 0 1 0 1

Total # of neighbors = 12364
Ave neighs/atom = 3.091
Ave special neighs/atom = 5.925
Neighbor list builds = 42
Dangerous builds = 0
shell          head -n 2 Temp.txt | tail -n 1 >> Tempfile.txt
shell          head -n 2 Bond.txt | tail -n 1 >> Bondfile.txt
next           myTempStr
next           myBondStr
if "${myBond} <= 0" then "jump imdinput.txt nobonds"
jump           imdinput.txt loop2here

# specifies the run length in timesteps
run            2000
WARNING: Use special bonds = 0,1,1 with bond style fene (../bond_fene.cpp:188)
Memory usage per processor = 5.58344 Mbytes
Step Temp E_pair E_mol TotEng Press 
   46000    1.0189109   0.18681917    20.606519    22.321323   0.25131874 
   46100    1.0015487   0.19200247    20.619719    22.313669   0.22500225 
   46200   0.99333805   0.19701878    20.599226    22.285879   0.58641919 
   46300   0.99346211   0.19906829    20.605735    22.294624   0.37861642 
   46400   0.99270866   0.19921438    20.592412    22.280317   0.46974127 
   46500    0.9603476   0.20233038      20.6245    22.266991   0.28876094 
   46600   0.97673183   0.20435332    20.590593    22.259678   0.23670819 
   46700   0.97805995   0.20630896    20.590995    22.264028   0.62221071 
   46800   0.97873203   0.20848068    20.590733    22.266945   0.23912531 
   46900   0.97844677   0.20530867    20.590826    22.263438   0.40027364 
   47000   0.99858696   0.20155662    20.580528    22.279591   0.28931282 
   47100     0.991335   0.19944111     20.58726    22.273332   0.25673431 
   47200   0.99735166    0.1961639    20.585848    22.277665   0.37802172 
   47300    1.0017449   0.19141317    20.588211    22.281866   0.12469238 
   47400   0.99316331   0.19029297    20.600995     22.28066   0.40779659 
   47500    1.0103583    0.1882739    20.590658    22.294091   0.51347554 
   47600    1.0171466    0.1862022    20.585519    22.297059   0.62563625 
   47700   0.99845463   0.18605278    20.600058    22.283418   0.20606155 
   47800   0.98748405   0.18540324    20.608976    22.275235   0.34972481 
   47900   0.99864627   0.18974996    20.596524    22.283869   0.36519283 
   48000   0.99468498   0.19010631    20.595831    22.277592   0.30492777 
Loop time of 0.456095 on 4 procs (4 MPI x 1 OpenMP) for 2000 steps with 4000 atoms

Pair  time (%) = 0.138429 (30.3509)
Bond  time (%) = 0.0453499 (9.94309)
Neigh time (%) = 0.0255051 (5.59207)
Comm  time (%) = 0.0887862 (19.4666)
Outpt time (%) = 0.000920236 (0.201764)
Other time (%) = 0.157104 (34.4455)

Nlocal:    1000 ave 1015 max 980 min
Histogram: 1 0 0 0 1 0 0 0 1 1
Nghost:    1056 ave 1085 max 1029 min
Histogram: 1 1 0 0 0 0 0 1 0 1
Neighs:    3086.75 ave 3246 max 2879 min
Histogram: 1 0 0 0 0 0 2 0 0 1

Total # of neighbors = 12347
Ave neighs/atom = 3.08675
Ave special neighs/atom = 5.925
Neighbor list builds = 40
Dangerous builds = 0
shell          head -n 2 Temp.txt | tail -n 1 >> Tempfile.txt
shell          head -n 2 Bond.txt | tail -n 1 >> Bondfile.txt
next           myTempStr
next           myBondStr
if "${myBond} <= 0" then "jump imdinput.txt nobonds"
jump           imdinput.txt loop2here

# specifies the run length in timesteps
run            2000
WARNING: Use special bonds = 0,1,1 with bond style fene (../bond_fene.cpp:188)
Memory usage per processor = 5.58051 Mbytes
Step Temp E_pair E_mol TotEng Press 
   48000   0.99468498   0.19010631    20.595831    22.277592   0.30492777 
   48100     0.988221     0.187446    20.607258    22.276664   0.19949707 
   48200    1.0109759   0.18829517    20.587427    22.291807   0.35119875 
   48300    1.0052069   0.18779712    20.590084    22.285314   0.28932776 
   48400   0.98564713   0.18770113    20.604553    22.270355   0.23911066 
   48500   0.98523059   0.19051227    20.596658    22.264647   0.53959757 
   48600   0.98642376   0.19644714    20.607821    22.283534   0.30652369 
   48700   0.99926465   0.20094363    20.597395     22.29686   0.34635749 
   48800    1.0058991   0.20384995    20.578798    22.291119   0.30919304 
   48900   0.99177988   0.19784732    20.592489    22.277634   0.43524208 
   49000   0.99950401   0.19196019    20.587635    22.278477   0.26513553 
   49100   0.98928206   0.18841749    20.598001    22.269971   0.33888855 
   49200   0.98664042   0.18718778    20.591028    22.257807   0.48871308 
   49300    1.0092152   0.18757878    20.578879    22.279902   0.24360117 
   49400    1.0010675    0.1891822     20.60231    22.292718   0.21053154 
   49500    0.9994711    0.1911837    20.598571    22.288587   0.39472826 
   49600   0.99286903   0.19529535    20.596715    22.280942   0.31528504 
   49700   0.99282294    0.1988842    20.594591    22.282338   0.14174975 
   49800   0.99826579   0.19968669    20.581745    22.278456   0.40431392 
   49900    1.0034917   0.19858342     20.58724    22.290684   0.57884049 
   50000    1.0172967   0.19899082    20.591554    22.316109    0.5894961 
Loop time of 0.456172 on 4 procs (4 MPI x 1 OpenMP) for 2000 steps with 4000 atoms

Pair  time (%) = 0.137607 (30.1657)
Bond  time (%) = 0.0454547 (9.96439)
Neigh time (%) = 0.0260306 (5.70632)
Comm  time (%) = 0.0874539 (19.1713)
Outpt time (%) = 0.000946701 (0.207532)
Other time (%) = 0.158679 (34.7848)

Nlocal:    1000 ave 1032 max 968 min
Histogram: 1 1 0 0 0 0 0 0 1 1
Nghost:    1081.75 ave 1097 max 1056 min
Histogram: 1 0 0 0 0 0 1 0 1 1
Neighs:    3108 ave 3333 max 2857 min
Histogram: 1 0 0 1 0 0 0 1 0 1

Total # of neighbors = 12432
Ave neighs/atom = 3.108
Ave special neighs/atom = 5.925
Neighbor list builds = 41
Dangerous builds = 0
shell          head -n 2 Temp.txt | tail -n 1 >> Tempfile.txt
shell          head -n 2 Bond.txt | tail -n 1 >> Bondfile.txt
next           myTempStr
next           myBondStr
if "${myBond} <= 0" then "jump imdinput.txt nobonds"
jump           imdinput.txt loop2here

# specifies the run length in timesteps
run            2000
WARNING: Use special bonds = 0,1,1 with bond style fene (../bond_fene.cpp:188)
Memory usage per processor = 5.58564 Mbytes
Step Temp E_pair E_mol TotEng Press 
   50000    1.0172967   0.19899082    20.591554    22.316109    0.5894961 
   50100     1.007344   0.20127218    20.589182    22.301093  0.046451064 
   50200    1.0007865    0.2006278    20.597998     22.29943   0.47076184 
   50300   0.98959186   0.20090859    20.603235     22.28816   0.35106455 
   50400   0.99282024   0.19945239    20.595183    22.283494    0.2231714 
   50500   0.99316352   0.19817002    20.592057    22.279599    0.3742386 
   50600   0.97124175   0.20031417    20.611673    22.268486   0.22053177 
   50700    0.9951863   0.20003004      20.5752    22.267636   0.40515444 
   50800   0.99455879   0.19510952     20.59913    22.285705  0.061142165 
   50900   0.99382076   0.18964041    20.591008    22.271007   0.34958535 
   51000   0.99812862   0.18599147    20.603116    22.285926   0.27366627 
   51100    1.0089776     0.182688    20.617591    22.313367   0.25783121 
   51200    1.0191394   0.18256017    20.585778    22.296665   0.25916372 
   51300   0.99983495   0.18539466     20.61362    22.298392   0.51687728 
   51400    1.0171043   0.18725832    20.600992    22.313525   0.34863362 
   51500    1.0202096   0.18753331    20.598409    22.315874  0.055126744 
   51600    1.0225203   0.18662891    20.594853    22.314879   0.41339652 
   51700    1.0357971   0.18957663    20.569965    22.312849   0.45610662 
   51800    1.0144233   0.19194083    20.590913    22.304109    0.3802321 
   51900    1.0078497   0.19105516    20.582135    22.284587   0.44621053 
   52000   0.98563222   0.18910964    20.601876    22.269064   0.27054703 
Loop time of 0.462764 on 4 procs (4 MPI x 1 OpenMP) for 2000 steps with 4000 atoms

Pair  time (%) = 0.138546 (29.9389)
Bond  time (%) = 0.0455074 (9.83384)
Neigh time (%) = 0.0265028 (5.72707)
Comm  time (%) = 0.0919802 (19.8763)
Outpt time (%) = 0.000887871 (0.191863)
Other time (%) = 0.159339 (34.4321)

Nlocal:    1000 ave 1030 max 973 min
Histogram: 1 1 0 0 0 0 0 1 0 1
Nghost:    1091 ave 1125 max 1073 min
Histogram: 1 1 1 0 0 0 0 0 0 1
Neighs:    3117.25 ave 3291 max 2930 min
Histogram: 1 1 0 0 0 0 0 0 0 2

Total # of neighbors = 12469
Ave neighs/atom = 3.11725
Ave special neighs/atom = 5.925
Neighbor list builds = 42
Dangerous builds = 0
shell          head -n 2 Temp.txt | tail -n 1 >> Tempfile.txt
shell          head -n 2 Bond.txt | tail -n 1 >> Bondfile.txt
next           myTempStr
next           myBondStr
if "${myBond} <= 0" then "jump imdinput.txt nobonds"
jump           imdinput.txt loop2here

# specifies the run length in timesteps
run            2000
WARNING: Use special bonds = 0,1,1 with bond style fene (../bond_fene.cpp:188)
Memory usage per processor = 5.58418 Mbytes
Step Temp E_pair E_mol TotEng Press 
   52000   0.98563222   0.18910964    20.601876    22.269064   0.27054703 
   52100   0.98677354     0.189414    20.583064    22.252268   0.19476373 
   52200    1.0059842   0.18584196    20.574916    22.269357    0.7093773 
   52300    1.0065216   0.18584807    20.587002    22.282255   0.35464091 
   52400    1.0059421   0.18854777     20.58485    22.281934   0.38646509 
   52500    0.9991461   0.19320396    20.590836    22.282385   0.22449851 
   52600   0.98218133   0.19647073    20.597073    22.266447   0.32401699 
   52700   0.99580756   0.19967212    20.595116    22.288126   0.16257891 
   52800   0.99803499   0.19620091    20.593299    22.286178   0.42125323 
   52900    1.0007228   0.19659238    20.599864    22.297166   0.46538444 
   53000    1.0057426   0.19337688    20.595858    22.297472   0.18751122 
   53100    1.0049384   0.18882544    20.593495    22.289351   0.46061626 
   53200    1.0072845   0.18674452    20.600444    22.297737   0.42265692 
   53300    1.0127521    0.1868897    20.591219    22.296857   0.26242584 
   53400    1.0133957   0.18685288    20.591394     22.29796   0.39750194 
   53500    1.0002425   0.18740294    20.601081    22.288472    0.4733588 
   53600   0.99913922   0.19097693    20.585398    22.274709   0.39639818 
   53700   0.99236946   0.19074719    20.594579    22.273508    0.1309196 
   53800   0.98168976   0.18972818    20.597043    22.258937   0.34961106 
   53900   0.98620873   0.19053719    20.589983    22.259463   0.44222061 
   54000   0.99825023   0.18824548    20.597216    22.282462    0.1775529 
Loop time of 0.463078 on 4 procs (4 MPI x 1 OpenMP) for 2000 steps with 4000 atoms

Pair  time (%) = 0.137586 (29.7112)
Bond  time (%) = 0.0455927 (9.84557)
Neigh time (%) = 0.0276459 (5.97003)
Comm  time (%) = 0.0910849 (19.6694)
Outpt time (%) = 0.000909567 (0.196417)
Other time (%) = 0.160259 (34.6074)

Nlocal:    1000 ave 1027 max 984 min
Histogram: 2 0 0 0 1 0 0 0 0 1
Nghost:    1093 ave 1100 max 1078 min
Histogram: 1 0 0 0 0 0 0 0 2 1
Neighs:    3097.75 ave 3246 max 2901 min
Histogram: 1 0 1 0 0 0 0 0 0 2

Total # of neighbors = 12391
Ave neighs/atom = 3.09775
Ave special neighs/atom = 5.925
Neighbor list builds = 43
Dangerous builds = 0
shell          head -n 2 Temp.txt | tail -n 1 >> Tempfile.txt
shell          head -n 2 Bond.txt | tail -n 1 >> Bondfile.txt
next           myTempStr
next           myBondStr
if "${myBond} <= 0" then "jump imdinput.txt nobonds"
jump           imdinput.txt loop2here

# specifies the run length in timesteps
run            2000
WARNING: Use special bonds = 0,1,1 with bond style fene (../bond_fene.cpp:188)
Memory usage per processor = 5.58271 Mbytes
Step Temp E_pair E_mol TotEng Press 
   54000   0.99825023   0.18824548    20.597216    22.282462    0.1775529 
   54100    1.0029713   0.18608022    20.611289     22.30145   0.36655663 
   54200    1.0123856   0.18674708    20.606362    22.311307   0.24245374 
   54300    1.0315568   0.18539987    20.592281    22.324629   0.57682459 
   54400   0.99723302   0.18418806    20.614016    22.293679   0.32505402 
   54500    1.0205496   0.18372928    20.594528    22.308699   0.18663026 
   54600    1.0130934   0.17885552    20.622549    22.320665   0.16404601 
   54700    1.0240929   0.17708395    20.597197    22.310036   0.43794419 
   54800   0.99206075   0.17683555    20.620601    22.285156   0.38516958 
   54900   0.98735268   0.17890564    20.610146     22.26971   0.18153415 
   55000   0.98942673   0.18104445    20.606256    22.271069   0.37866178 
   55100   0.99268741    0.1836094    20.604287    22.276555   0.37647566 
   55200   0.99012477   0.18617713     20.60243    22.273423    0.5567177 
   55300   0.99464567   0.18612861    20.602143    22.279867   0.43767843 
   55400   0.99882056   0.18461435    20.607892    22.290363   0.27880303 
   55500    1.0129847   0.18398885    20.597959    22.301045   0.13039329 
   55600   0.99664559   0.18553553    20.605079    22.285209   0.35635298 
   55700    1.0069178   0.18187224    20.603082    22.294954   0.40310772 
   55800    1.0085438    0.1834881    20.586071    22.281996   0.28678517 
   55900    1.0043801   0.18693971    20.593358    22.286492   0.32065928 
   56000   0.99018711   0.18882527    20.595566    22.269301   0.34882946 
Loop time of 0.456278 on 4 procs (4 MPI x 1 OpenMP) for 2000 steps with 4000 atoms

Pair  time (%) = 0.135149 (29.62)
Bond  time (%) = 0.0454028 (9.9507)
Neigh time (%) = 0.0262661 (5.7566)
Comm  time (%) = 0.0893538 (19.5832)
Outpt time (%) = 0.000967264 (0.21199)
Other time (%) = 0.159138 (34.8775)

Nlocal:    1000 ave 1025 max 976 min
Histogram: 1 0 1 0 0 0 0 1 0 1
Nghost:    1056 ave 1069 max 1034 min
Histogram: 1 0 0 0 0 0 1 0 1 1
Neighs:    3074.5 ave 3225 max 2876 min
Histogram: 1 0 0 0 1 0 0 0 1 1

Total # of neighbors = 12298
Ave neighs/atom = 3.0745
Ave special neighs/atom = 5.925
Neighbor list builds = 42
Dangerous builds = 0
shell          head -n 2 Temp.txt | tail -n 1 >> Tempfile.txt
shell          head -n 2 Bond.txt | tail -n 1 >> Bondfile.txt
next           myTempStr
next           myBondStr
if "${myBond} <= 0" then "jump imdinput.txt nobonds"
jump           imdinput.txt loop2here

# specifies the run length in timesteps
run            2000
WARNING: Use special bonds = 0,1,1 with bond style fene (../bond_fene.cpp:188)
Memory usage per processor = 5.58295 Mbytes
Step Temp E_pair E_mol TotEng Press 
   56000   0.99018711   0.18882527    20.595566    22.269301   0.34882946 
   56100   0.98435361   0.18576108    20.597818     22.25974   0.43594785 
   56200    1.0002279   0.18692442    20.582297    22.269188   0.32113737 
   56300   0.99779269   0.18725929    20.602129    22.285703    0.3147667 
   56400    1.0101898   0.18813392    20.594795    22.297835   0.34315239 
   56500    1.0103498   0.19137756    20.587214    22.293738   0.28827301 
   56600   0.99574233   0.19571311    20.589869    22.278823   0.32314016 
   56700   0.99789526    0.1937823    20.593696    22.283947   0.21376057 
   56800   0.99204453   0.19120375    20.580073    22.258971   0.45648599 
   56900   0.99943373   0.18704574    20.580346    22.266167   0.21124524 
   57000   0.99134042   0.18610424    20.600948    22.273692   0.32254349 
   57100   0.99770533   0.18889041    20.600668    22.285743   0.40359274 
   57200   0.99825645   0.18942275     20.59465    22.281083   0.40784406 
   57300   0.99928543    0.1905082    20.595158     22.28422   0.53360682 
   57400    1.0028747   0.19202296     20.58317    22.279129   0.46466211 
   57500   0.99731519   0.19405921    20.593584    22.283242   0.24530505 
   57600    1.0042091   0.19437215    20.572955    22.273264   0.43843678 
   57700   0.99137641   0.19189719    20.589544    22.268134   0.30915069 
   57800    1.0056937   0.18995222    20.573784      22.2719   0.38465278 
   57900    0.9926596   0.19156971    20.585555    22.265742  0.099276421 
   58000    1.0020086   0.18965513    20.579476    22.271769   0.34401249 
Loop time of 0.453129 on 4 procs (4 MPI x 1 OpenMP) for 2000 steps with 4000 atoms

Pair  time (%) = 0.13531 (29.8612)
Bond  time (%) = 0.045337 (10.0053)
Neigh time (%) = 0.0256874 (5.66889)
Comm  time (%) = 0.0873922 (19.2864)
Outpt time (%) = 0.000969231 (0.213897)
Other time (%) = 0.158434 (34.9643)

Nlocal:    1000 ave 1013 max 977 min
Histogram: 1 0 0 0 0 1 0 0 0 2
Nghost:    1034 ave 1052 max 1007 min
Histogram: 1 0 0 0 0 0 1 0 1 1
Neighs:    3063.75 ave 3163 max 2949 min
Histogram: 1 0 0 0 1 0 0 1 0 1

Total # of neighbors = 12255
Ave neighs/atom = 3.06375
Ave special neighs/atom = 5.925
Neighbor list builds = 41
Dangerous builds = 0
shell          head -n 2 Temp.txt | tail -n 1 >> Tempfile.txt
shell          head -n 2 Bond.txt | tail -n 1 >> Bondfile.txt
next           myTempStr
next           myBondStr
if "${myBond} <= 0" then "jump imdinput.txt nobonds"
jump           imdinput.txt loop2here

# specifies the run length in timesteps
run            2000
WARNING: Use special bonds = 0,1,1 with bond style fene (../bond_fene.cpp:188)
Memory usage per processor = 5.58076 Mbytes
Step Temp E_pair E_mol TotEng Press 
   58000    1.0020086   0.18965513    20.579476    22.271769   0.34401249 
   58100    1.0082055   0.19083604    20.586183     22.28895   0.33341791 
   58200    1.0042132   0.19517707     20.59898      22.3001   0.53820834 
   58300    1.0089723    0.2006106    20.587555    22.301246   0.18602631 
   58400   0.99169946    0.2030754     20.59149    22.281743   0.43193317 
   58500   0.99688062   0.19977927    20.599937    22.294663   0.33392015 
   58600    1.0105897   0.19748259    20.589476    22.302464   0.52735819 
   58700     1.015461   0.19622504    20.586845    22.305881   0.19565593 
   58800   0.99829065   0.19541736    20.588487    22.280966   0.40863719 
   58900    1.0082327    0.1939047    20.582768    22.288644   0.35151031 
   59000    1.0156633   0.19337002    20.591225    22.307709   0.41363741 
   59100     1.017526   0.19677246    20.593154    22.315834    0.3630083 
   59200    1.0075913   0.19749174    20.593195    22.301696   0.44813807 
   59300   0.99480789   0.19465165     20.59688    22.283371   0.25874864 
   59400    1.0052888   0.19108369    20.574687    22.273327    0.3993948 
   59500   0.99614081   0.19173076    20.579218    22.264786   0.31566805 
   59600   0.97986726   0.18962479    20.585947    22.245005   0.42203406 
   59700   0.98118094   0.18824698    20.574188    22.233838   0.48479297 
   59800   0.97966957   0.18921423    20.579552    22.237903   0.36833147 
   59900   0.98661611    0.1922254    20.577484    22.249263   0.27249279 
   60000   0.97179448   0.19643842     20.57837    22.232136   0.42208467 
Loop time of 0.459478 on 4 procs (4 MPI x 1 OpenMP) for 2000 steps with 4000 atoms

Pair  time (%) = 0.137416 (29.9069)
Bond  time (%) = 0.0452368 (9.84525)
Neigh time (%) = 0.0275442 (5.99467)
Comm  time (%) = 0.0898663 (19.5583)
Outpt time (%) = 0.000908375 (0.197697)
Other time (%) = 0.158507 (34.4971)

Nlocal:    1000 ave 1027 max 951 min
Histogram: 1 0 0 0 0 0 0 1 1 1
Nghost:    1058.25 ave 1088 max 1022 min
Histogram: 1 0 0 1 0 0 0 0 1 1
Neighs:    3095.75 ave 3345 max 2697 min
Histogram: 1 0 0 0 0 0 1 1 0 1

Total # of neighbors = 12383
Ave neighs/atom = 3.09575
Ave special neighs/atom = 5.925
Neighbor list builds = 43
Dangerous builds = 0
shell          head -n 2 Temp.txt | tail -n 1 >> Tempfile.txt
shell          head -n 2 Bond.txt | tail -n 1 >> Bondfile.txt
next           myTempStr
next           myBondStr
if "${myBond} <= 0" then "jump imdinput.txt nobonds"
jump           imdinput.txt loop2here

# specifies the run length in timesteps
run            2000
WARNING: Use special bonds = 0,1,1 with bond style fene (../bond_fene.cpp:188)
Memory usage per processor = 5.58344 Mbytes
Step Temp E_pair E_mol TotEng Press 
   60000   0.97179448   0.19643842     20.57837    22.232136   0.42208467 
   60100   0.96750257   0.19581758    20.588657    22.235366   0.30701648 
   60200   0.98857765   0.19599496    20.576013    22.254503    0.2363978 
   60300   0.98232245   0.19635199     20.57222    22.241687   0.40508251 
   60400   0.99925529   0.19689694    20.571714    22.267119   0.44768715 
   60500   0.98085883   0.20055999    20.591453    22.262934   0.32939005 
   60600   0.99401282   0.19716328    20.585368    22.273178   0.27388718 
   60700   0.99726407   0.19177732    20.579209    22.266508   0.37777377 
   60800    1.0020994   0.18819262    20.578346    22.269312   0.34638378 
   60900    1.0008737   0.18740612    20.582633    22.270974   0.52804284 
   61000   0.99636549   0.18614576    20.597747    22.278068  0.069161597 
   61100    1.0056396   0.18461195     20.57655    22.269244   0.32162677 
   61200   0.99025938   0.18266561    20.590412    22.258095   0.27542608 
   61300   0.99884842   0.18113205     20.58985     22.26888   0.30311942 
   61400    1.0037557   0.17850561    20.574129    22.257891   0.39303582 
   61500   0.99591494   0.18045053    20.577857    22.251806   0.47199415 
   61600   0.98732927   0.18404759    20.587863    22.252534   0.16220953 
   61700   0.98835407   0.18601154    20.582269    22.250441   0.32061803 
   61800   0.99181827   0.18898466    20.585596    22.261936   0.47218051 
   61900   0.99665025   0.19040236    20.596017    22.281021   0.47856265 
   62000    1.0099462   0.18972439    20.598717    22.302982   0.22451015 
Loop time of 0.467196 on 4 procs (4 MPI x 1 OpenMP) for 2000 steps with 4000 atoms

Pair  time (%) = 0.137368 (29.4027)
Bond  time (%) = 0.0453619 (9.70939)
Neigh time (%) = 0.0268868 (5.75492)
Comm  time (%) = 0.0955332 (20.4482)
Outpt time (%) = 0.00090909 (0.194584)
Other time (%) = 0.161137 (34.4903)

Nlocal:    1000 ave 1052 max 930 min
Histogram: 1 0 0 0 0 0 2 0 0 1
Nghost:    1074.75 ave 1093 max 1057 min
Histogram: 1 1 0 0 0 0 0 0 1 1
Neighs:    3098 ave 3531 max 2727 min
Histogram: 1 0 0 1 0 1 0 0 0 1

Total # of neighbors = 12392
Ave neighs/atom = 3.098
Ave special neighs/atom = 5.925
Neighbor list builds = 42
Dangerous builds = 0
shell          head -n 2 Temp.txt | tail -n 1 >> Tempfile.txt
shell          head -n 2 Bond.txt | tail -n 1 >> Bondfile.txt
next           myTempStr
next           myBondStr
if "${myBond} <= 0" then "jump imdinput.txt nobonds"
jump           imdinput.txt loop2here

# specifies the run length in timesteps
run            2000
WARNING: Use special bonds = 0,1,1 with bond style fene (../bond_fene.cpp:188)
Memory usage per processor = 5.59028 Mbytes
Step Temp E_pair E_mol TotEng Press 
   62000    1.0099462   0.18972439    20.598717    22.302982   0.22451015 
   62100    1.0114816   0.18889125    20.606484    22.312218   0.30251584 
   62200   0.99866703   0.19125997     20.60921    22.298096   0.36854593 
   62300     1.012171   0.19496774    20.590371    22.303216   0.51465238 
   62400    1.0061897   0.19804292    20.587748    22.294698   0.31634953 
   62500     1.015848   0.19661254    20.585898    22.305902   0.38055559 
   62600    1.0134284   0.19352819    20.597638    22.310929   0.30948453 
   62700    1.0155572   0.19505767    20.587972    22.305985   0.25948905 
   62800    1.0147454   0.19488207    20.579547    22.296167    0.3454718 
   62900    1.0172338   0.19669985    20.582363    22.304532   0.25907443 
   63000   0.99817917   0.19822032    20.596359    22.291473   0.31966349 
   63100   0.99790429   0.19720888    20.580702    22.274393   0.34306097 
   63200   0.98949741   0.19354528    20.591114    22.268534    0.3051956 
   63300    1.0062477   0.18957465    20.582723    22.281292   0.61458212 
   63400    1.0023846   0.18818951    20.593954    22.285344   0.34411468 
   63500   0.99297211   0.18813079    20.594523    22.271739   0.47805241 
   63600    1.0025036    0.1860263    20.576718    22.266124   0.47682434 
   63700   0.98246809   0.18401317    20.611363     22.26871   0.30106155 
   63800   0.99572404   0.18775191    20.604033    22.284998 -0.070071512 
   63900    1.0098894   0.18882411    20.592842    22.296122   0.66445455 
   64000    1.0082345    0.1890066     20.59008     22.29106 6.8498627e-05 
Loop time of 0.592691 on 4 procs (4 MPI x 1 OpenMP) for 2000 steps with 4000 atoms

Pair  time (%) = 0.16492 (27.8257)
Bond  time (%) = 0.0568787 (9.59668)
Neigh time (%) = 0.0330346 (5.57367)
Comm  time (%) = 0.144708 (24.4154)
Outpt time (%) = 0.000945449 (0.159518)
Other time (%) = 0.192204 (32.429)

Nlocal:    1000 ave 1052 max 922 min
Histogram: 1 0 0 0 0 1 0 0 1 1
Nghost:    1060 ave 1079 max 1035 min
Histogram: 1 0 0 0 0 1 0 1 0 1
Neighs:    3103.5 ave 3516 max 2624 min
Histogram: 1 0 0 1 0 0 0 1 0 1

Total # of neighbors = 12414
Ave neighs/atom = 3.1035
Ave special neighs/atom = 5.925
Neighbor list builds = 41
Dangerous builds = 0
shell          head -n 2 Temp.txt | tail -n 1 >> Tempfile.txt
shell          head -n 2 Bond.txt | tail -n 1 >> Bondfile.txt
next           myTempStr
next           myBondStr
if "${myBond} <= 0" then "jump imdinput.txt nobonds"
jump           imdinput.txt loop2here

# specifies the run length in timesteps
run            2000
WARNING: Use special bonds = 0,1,1 with bond style fene (../bond_fene.cpp:188)
Memory usage per processor = 5.59003 Mbytes
Step Temp E_pair E_mol TotEng Press 
   64000    1.0082345    0.1890066     20.59008     22.29106 6.8498627e-05 
   64100    1.0217756   0.18695498    20.581755     22.30099   0.33426535 
   64200    0.9941614   0.19174831    20.603151    22.285768   0.37015742 
   64300    1.0011388   0.19289038    20.598491    22.292714   0.40070811 
   64400     1.006313   0.19673469    20.600256    22.306083    0.2190035 
   64500    1.0119099   0.19862049    20.595551    22.311657   0.46869147 
   64600    1.0041557   0.19783922    20.613911    22.317607   0.31602357 
   64700    1.0154378   0.19545353     20.60465     22.32288    0.2788091 
   64800    1.0102944   0.19295295    20.599029    22.307045   0.34040014 
   64900    1.0142445   0.19619862    20.586588    22.303773   0.35784372 
   65000    1.0006939   0.19894756    20.589877     22.28949   0.20256927 
   65100   0.99933998   0.19807443    20.591181     22.28789   0.53176267 
   65200     1.004018   0.19750988    20.588318    22.291478   0.25462026 
   65300   0.99150536   0.19642015    20.602997    22.286304   0.39948061 
   65400    1.0146383    0.1945604    20.584738    22.300875   0.36526495 
   65500    1.0019866    0.1919105    20.597918    22.292433 -0.011217558 
   65600    0.9870128    0.1912099    20.602038    22.273397   0.32642416 
   65700   0.99263648   0.19519024    20.586254    22.270027   0.29235026 
   65800   0.99427065   0.19866899    20.576867    22.266569   0.62761013 
   65900    0.9802361   0.20014916    20.580825    22.250961   0.27707635 
   66000   0.98619615   0.19930727    20.574921    22.253153   0.41789886 
Loop time of 0.611865 on 4 procs (4 MPI x 1 OpenMP) for 2000 steps with 4000 atoms

Pair  time (%) = 0.173053 (28.2828)
Bond  time (%) = 0.0598912 (9.78831)
Neigh time (%) = 0.0342952 (5.60503)
Comm  time (%) = 0.145207 (23.7319)
Outpt time (%) = 0.0010249 (0.167505)
Other time (%) = 0.198394 (32.4244)

Nlocal:    1000 ave 1046 max 919 min
Histogram: 1 0 0 0 0 0 1 0 0 2
Nghost:    1048.75 ave 1082 max 1026 min
Histogram: 1 1 0 0 1 0 0 0 0 1
Neighs:    3153.5 ave 3443 max 2637 min
Histogram: 1 0 0 0 0 1 0 0 0 2

Total # of neighbors = 12614
Ave neighs/atom = 3.1535
Ave special neighs/atom = 5.925
Neighbor list builds = 42
Dangerous builds = 0
shell          head -n 2 Temp.txt | tail -n 1 >> Tempfile.txt
shell          head -n 2 Bond.txt | tail -n 1 >> Bondfile.txt
next           myTempStr
next           myBondStr
if "${myBond} <= 0" then "jump imdinput.txt nobonds"
jump           imdinput.txt loop2here

# specifies the run length in timesteps
run            2000
WARNING: Use special bonds = 0,1,1 with bond style fene (../bond_fene.cpp:188)
Memory usage per processor = 5.58906 Mbytes
Step Temp E_pair E_mol TotEng Press 
   66000   0.98619615   0.19930727    20.574921    22.253153   0.41789886 
   66100    0.9747659   0.20096668    20.578159    22.240909   0.37175232 
   66200   0.97967251   0.19759044    20.578988    22.245719   0.36255471 
   66300   0.98200745   0.19826927    20.569377    22.240289   0.42800092 
   66400   0.97524132   0.20008665    20.587853    22.250436   0.43496578 
   66500   0.98920288   0.20243741    20.563598    22.249469    0.3046021 
   66600   0.99979601   0.20231778    20.564004    22.265641   0.21766728 
   66700    0.9888241   0.19919538    20.587426    22.269487   0.43246076 
   66800    1.0077185   0.20206745    20.569424    22.282692   0.45597873 
   66900   0.98547997    0.2051685    20.593992     22.27701   0.12336485 
   67000    1.0098144   0.20339866    20.562571    22.280312   0.42248837 
   67100   0.99629026   0.19800958    20.590089    22.282161    0.3299625 
   67200    1.0193219    0.1967182    20.572196    22.297515   0.58740817 
   67300    1.0124243   0.19752726    20.583583    22.299367  0.069509182 
   67400    1.0223113   0.19613354    20.566715    22.295933   0.57705104 
   67500   0.99636006   0.20062766    20.585226     22.28002   0.29020307 
   67600     0.992443   0.20260618    20.576538    22.267437   0.42994913 
   67700   0.99757849   0.20169284    20.571705    22.269391     0.275784 
   67800    1.0024412   0.20125957    20.573399    22.277945   0.54784538 
   67900   0.99328908    0.1972849    20.588766    22.275613   0.35407937 
   68000    1.0046787   0.19594581    20.569505    22.272092   0.38429667 
Loop time of 0.608069 on 4 procs (4 MPI x 1 OpenMP) for 2000 steps with 4000 atoms

Pair  time (%) = 0.171543 (28.2111)
Bond  time (%) = 0.0580798 (9.55152)
Neigh time (%) = 0.0338955 (5.57428)
Comm  time (%) = 0.146296 (24.0591)
Outpt time (%) = 0.000981271 (0.161375)
Other time (%) = 0.197273 (32.4426)

Nlocal:    1000 ave 1036 max 926 min
Histogram: 1 0 0 0 0 0 0 1 0 2
Nghost:    1066.5 ave 1074 max 1055 min
Histogram: 1 0 0 0 0 1 0 0 1 1
Neighs:    3127.75 ave 3378 max 2738 min
Histogram: 1 0 0 0 0 0 1 1 0 1

Total # of neighbors = 12511
Ave neighs/atom = 3.12775
Ave special neighs/atom = 5.925
Neighbor list builds = 42
Dangerous builds = 0
shell          head -n 2 Temp.txt | tail -n 1 >> Tempfile.txt
shell          head -n 2 Bond.txt | tail -n 1 >> Bondfile.txt
next           myTempStr
next           myBondStr
if "${myBond} <= 0" then "jump imdinput.txt nobonds"
jump           imdinput.txt loop2here

# specifies the run length in timesteps
run            2000
WARNING: Use special bonds = 0,1,1 with bond style fene (../bond_fene.cpp:188)
Memory usage per processor = 5.58564 Mbytes
Step Temp E_pair E_mol TotEng Press 
   68000    1.0046787   0.19594581    20.569505    22.272092   0.38429667 
   68100    0.9936105   0.19217081    20.582159    22.264373   0.22190517 
   68200    1.0036709   0.19286723    20.577834    22.275831   0.12259848 
   68300   0.99096861   0.19467646    20.590189    22.270947   0.17791804 
   68400    1.0069726   0.19790345    20.596058    22.304042   0.34197588 
   68500    1.0190647   0.20117073    20.581833    22.311219   0.30828741 
   68600    1.0220352   0.20170258    20.572993    22.307365   0.36439361 
   68700    1.0212801   0.20077986    20.568669    22.300986   0.46837986 
   68800    1.0126943   0.20101996    20.573602    22.293283   0.16912424 
   68900    1.0133671   0.20024049    20.582773    22.302685   0.29332051 
   69000    1.0093876   0.19898716    20.584513    22.297203   0.32171756 
   69100    1.0101901   0.19918995    20.592246    22.306342   0.39543699 
   69200    0.9890057   0.20144261    20.621313    22.305894   0.44738237 
   69300      1.00751   0.20226322    20.601366    22.314517   0.61393237 
   69400     1.010863   0.20022571    20.606531    22.322672   0.26168882 
   69500    1.0163032   0.19394654    20.606164    22.324184   0.41626458 
   69600    1.0160746   0.19058928    20.598323    22.312643   0.43740249 
   69700    1.0097847   0.18985359    20.604996    22.309148   0.27939379 
   69800    1.0105984   0.19149219    20.601169     22.30818   0.65360111 
   69900    1.0125119   0.19154789     20.59729    22.307226   0.46362495 
   70000    1.0143074   0.19343187    20.599935    22.314448   0.33958164 
Loop time of 0.625778 on 4 procs (4 MPI x 1 OpenMP) for 2000 steps with 4000 atoms

Pair  time (%) = 0.172826 (27.6178)
Bond  time (%) = 0.0577179 (9.22338)
Neigh time (%) = 0.034481 (5.51011)
Comm  time (%) = 0.161259 (25.7694)
Outpt time (%) = 0.000978053 (0.156294)
Other time (%) = 0.198515 (31.7229)

Nlocal:    1000 ave 1043 max 958 min
Histogram: 1 0 0 0 1 1 0 0 0 1
Nghost:    1065.25 ave 1082 max 1049 min
Histogram: 1 0 1 0 0 0 0 1 0 1
Neighs:    3088.75 ave 3500 max 2757 min
Histogram: 1 0 0 1 1 0 0 0 0 1

Total # of neighbors = 12355
Ave neighs/atom = 3.08875
Ave special neighs/atom = 5.925
Neighbor list builds = 41
Dangerous builds = 0
shell          head -n 2 Temp.txt | tail -n 1 >> Tempfile.txt
shell          head -n 2 Bond.txt | tail -n 1 >> Bondfile.txt
next           myTempStr
next           myBondStr
if "${myBond} <= 0" then "jump imdinput.txt nobonds"
jump           imdinput.txt loop2here

# specifies the run length in timesteps
run            2000
WARNING: Use special bonds = 0,1,1 with bond style fene (../bond_fene.cpp:188)
Memory usage per processor = 5.58662 Mbytes
Step Temp E_pair E_mol TotEng Press 
   70000    1.0143074   0.19343187    20.599935    22.314448   0.33958164 
   70100    1.0001377   0.19700618    20.605359    22.302196   0.22728977 
   70200    1.0022072   0.19970916    20.600062    22.302706    0.4092478 
   70300    1.0048765   0.19891723    20.604269    22.310125   0.10367176 
   70400    1.0033331   0.19364034    20.585058    22.283322   0.66171743 
   70500   0.98535986   0.19053575    20.593206    22.261412   0.41015742 
   70600   0.98202719   0.18745686    20.601025    22.261155   0.31696682 
   70700   0.99574849   0.18692789    20.583266    22.263443   0.33235877 
   70800   0.99238605   0.18553213    20.599853    22.273592   0.34184319 
   70900    1.0004739   0.18819455    20.581787    22.270317   0.48851739 
   71000   0.98599435   0.18987675    20.601382     22.26988    0.1193518 
   71100   0.98475504   0.18909428    20.605062    22.270919   0.48738823 
   71200   0.99501226   0.18807975    20.603642    22.283867   0.11896817 
   71300   0.99254853   0.18794434      20.6058    22.282195   0.41559033 
   71400    1.0044116   0.18881667    20.604122    22.299179   0.31310896 
   71500   0.99811881   0.19492369     20.59985    22.291578    0.6389451 
   71600    1.0043069   0.19886985    20.599316    22.304269    0.3678427 
   71700    1.0063853   0.19592518     20.59854    22.303666   0.28494591 
   71800    1.0036934   0.19318497    20.597965    22.296314   0.15735716 
   71900    1.0135182   0.18936672    20.576514    22.285778   0.38137089 
   72000   0.99685719   0.19031783    20.589151    22.274381   0.39196642 
Loop time of 0.636698 on 4 procs (4 MPI x 1 OpenMP) for 2000 steps with 4000 atoms

Pair  time (%) = 0.171422 (26.9236)
Bond  time (%) = 0.0589159 (9.25336)
Neigh time (%) = 0.0351633 (5.52276)
Comm  time (%) = 0.168527 (26.4689)
Outpt time (%) = 0.000975609 (0.15323)
Other time (%) = 0.201694 (31.6781)

Nlocal:    1000 ave 1056 max 964 min
Histogram: 2 0 0 0 1 0 0 0 0 1
Nghost:    1078.25 ave 1095 max 1062 min
Histogram: 2 0 0 0 0 0 0 0 0 2
Neighs:    3064 ave 3379 max 2860 min
Histogram: 1 0 1 1 0 0 0 0 0 1

Total # of neighbors = 12256
Ave neighs/atom = 3.064
Ave special neighs/atom = 5.925
Neighbor list builds = 41
Dangerous builds = 0
shell          head -n 2 Temp.txt | tail -n 1 >> Tempfile.txt
shell          head -n 2 Bond.txt | tail -n 1 >> Bondfile.txt
next           myTempStr
next           myBondStr
if "${myBond} <= 0" then "jump imdinput.txt nobonds"
jump           imdinput.txt loop2here

# specifies the run length in timesteps
run            2000
WARNING: Use special bonds = 0,1,1 with bond style fene (../bond_fene.cpp:188)
Memory usage per processor = 5.58881 Mbytes
Step Temp E_pair E_mol TotEng Press 
   72000   0.99685719   0.19031783    20.589151    22.274381   0.39196642 
   72100     1.006428   0.19195197    20.598375    22.299592   0.58159098 
   72200    1.0034158   0.19515174    20.595057    22.294956 -0.026520775 
   72300   0.99420907   0.19385924    20.598341    22.283142   0.42524635 
   72400    1.0069278   0.19275101    20.599269    22.302034   0.33448321 
   72500   0.99464726      0.18934    20.608769    22.289706   0.15711242 
   72600    1.0106258   0.18142802    20.596591    22.293578     0.339495 
   72700    1.0067923   0.17801506    20.582899    22.270725   0.51946975 
   72800     1.004678   0.18044637    20.597013    22.284099   0.24588599 
   72900   0.99679945   0.18536535    20.588632    22.268822   0.40639042 
   73000    1.0050004   0.18624953    20.590841    22.284214   0.15945472 
   73100   0.99386453   0.18749211     20.60292    22.280836   0.36847599 
   73200   0.99334514   0.18928408    20.603522    22.282451    0.5124117 
   73300    0.9811674   0.18909165    20.608404    22.268878   0.21904969 
   73400   0.99674502   0.19081789    20.604424    22.289986   0.47656823 
   73500   0.99964124   0.19149937    20.609057    22.299644   0.19604677 
   73600   0.99260599   0.18698293    20.603016    22.278536   0.34142191 
   73700    0.9966699   0.18601769    20.608127    22.288776   0.45997519 
   73800   0.99343649   0.18982052    20.591698    22.271301   0.23776014 
   73900    0.9832877   0.19233152     20.60489    22.271785   0.45497548 
   74000    0.9974567   0.19195671    20.592505    22.280273   0.31497774 
Loop time of 0.638804 on 4 procs (4 MPI x 1 OpenMP) for 2000 steps with 4000 atoms

Pair  time (%) = 0.17053 (26.6952)
Bond  time (%) = 0.0593578 (9.29201)
Neigh time (%) = 0.0359718 (5.63111)
Comm  time (%) = 0.169666 (26.5599)
Outpt time (%) = 0.0010128 (0.158547)
Other time (%) = 0.202266 (31.6632)

Nlocal:    1000 ave 1032 max 977 min
Histogram: 1 0 1 0 1 0 0 0 0 1
Nghost:    1078.75 ave 1108 max 1063 min
Histogram: 2 0 0 1 0 0 0 0 0 1
Neighs:    3094.75 ave 3319 max 2975 min
Histogram: 2 0 1 0 0 0 0 0 0 1

Total # of neighbors = 12379
Ave neighs/atom = 3.09475
Ave special neighs/atom = 5.925
Neighbor list builds = 42
Dangerous builds = 0
shell          head -n 2 Temp.txt | tail -n 1 >> Tempfile.txt
shell          head -n 2 Bond.txt | tail -n 1 >> Bondfile.txt
next           myTempStr
next           myBondStr
if "${myBond} <= 0" then "jump imdinput.txt nobonds"
jump           imdinput.txt loop2here

# specifies the run length in timesteps
run            2000
WARNING: Use special bonds = 0,1,1 with bond style fene (../bond_fene.cpp:188)
Memory usage per processor = 5.58515 Mbytes
Step Temp E_pair E_mol TotEng Press 
   74000    0.9974567   0.19195671    20.592505    22.280273   0.31497774 
   74100   0.99532253   0.19015783    20.600296    22.283064   0.29907638 
   74200     1.007401   0.18786588    20.598666    22.297256   0.52368208 
   74300    1.0130952   0.18857999    20.590725    22.298568   0.19815014 
   74400    1.0048925   0.19222702    20.589935    22.289124    0.4013181 
   74500    0.9987532   0.19285641    20.609948     22.30056    0.2300987 
   74600   0.99364545   0.19451751    20.593093    22.277706   0.47591411 
   74700   0.97555406   0.19566806    20.614193    22.272826   0.21523786 
   74800   0.98987905    0.1943241    20.595023    22.273794   0.57441621 
   74900   0.98762068   0.19522244    20.593533    22.269816   0.21045597 
   75000   0.98993931   0.19651304    20.593741    22.274792   0.12929622 
   75100   0.99321143     0.194277    20.598491    22.282212   0.40951262 
   75200   0.99478642   0.19233201    20.593099    22.277238   0.35281737 
   75300   0.98979502   0.19117224    20.611782    22.287276   0.26423308 
   75400   0.99762662   0.19004306    20.610066    22.296175   0.33127879 
   75500   0.98944507    0.1906344    20.600398    22.274829   0.47236048 
   75600    0.9964514   0.18997629    20.607731     22.29201   0.27704418 
   75700    1.0222843    0.1877871    20.596322    22.317153   0.47244524 
   75800    1.0257578   0.18924619     20.60329    22.330788    0.2431561 
   75900    1.0375087   0.19427979    20.579877    22.330031   0.25673182 
   76000    1.0072405   0.20211942    20.595393    22.307996   0.19318638 
Loop time of 0.632638 on 4 procs (4 MPI x 1 OpenMP) for 2000 steps with 4000 atoms

Pair  time (%) = 0.176851 (27.9545)
Bond  time (%) = 0.0627771 (9.92308)
Neigh time (%) = 0.0348372 (5.50667)
Comm  time (%) = 0.154589 (24.4356)
Outpt time (%) = 0.00106901 (0.168977)
Other time (%) = 0.202514 (32.0111)

Nlocal:    1000 ave 1020 max 981 min
Histogram: 1 0 1 0 0 0 0 1 0 1
Nghost:    1063.25 ave 1105 max 1021 min
Histogram: 1 0 0 1 0 0 1 0 0 1
Neighs:    3087 ave 3161 max 2968 min
Histogram: 1 0 0 0 0 0 0 2 0 1

Total # of neighbors = 12348
Ave neighs/atom = 3.087
Ave special neighs/atom = 5.925
Neighbor list builds = 42
Dangerous builds = 0
shell          head -n 2 Temp.txt | tail -n 1 >> Tempfile.txt
shell          head -n 2 Bond.txt | tail -n 1 >> Bondfile.txt
next           myTempStr
next           myBondStr
if "${myBond} <= 0" then "jump imdinput.txt nobonds"
jump           imdinput.txt loop2here

# specifies the run length in timesteps
run            2000
WARNING: Use special bonds = 0,1,1 with bond style fene (../bond_fene.cpp:188)
Memory usage per processor = 5.58271 Mbytes
Step Temp E_pair E_mol TotEng Press 
   76000    1.0072405   0.20211942    20.595393    22.307996   0.19318638 
   76100    1.0096559   0.20514827    20.595666     22.31492   0.50424376 
   76200    1.0060987   0.20346561    20.605184    22.317421   0.16643139 
   76300    1.0036405   0.19719456    20.601431     22.30371   0.42050442 
   76400   0.99997615   0.19017992    20.610792    22.300561   0.40758649 
   76500   0.99700438   0.18794294    20.595143    22.278218   0.52217863 
   76600   0.99246206   0.18705548    20.600205    22.275581    0.4029397 
   76700   0.98641522   0.18919615    20.594286    22.262735   0.28384378 
   76800   0.99293244   0.19020198    20.592927    22.272155   0.26793599 
   76900   0.98902414   0.19575717    20.587125    22.266048   0.40920534 
   77000   0.99630649   0.19985782    20.577487    22.271431   0.36551735 
   77100    0.9982049   0.20139349    20.577682    22.276009   0.33937408 
   77200   0.99169002   0.20093478    20.589456    22.277554  0.032887662 
   77300   0.98158793   0.19930668    20.604156    22.275476   0.37328894 
   77400   0.98518866   0.19940967     20.59046    22.267284   0.61707383 
   77500   0.98699841   0.19941889    20.574701    22.254248   0.47268891 
   77600   0.97177549   0.19930933    20.587453    22.244061   0.15025108 
   77700   0.97780564   0.19687937    20.584109     22.24733   0.38046183 
   77800   0.97799232    0.1959119    20.597795    22.260328   0.19285628 
   77900   0.99524148   0.19052139    20.591236    22.274246   0.58375947 
   78000    1.0004288    0.1890637    20.593436    22.282768   0.33873201 
Loop time of 0.62929 on 4 procs (4 MPI x 1 OpenMP) for 2000 steps with 4000 atoms

Pair  time (%) = 0.174686 (27.7592)
Bond  time (%) = 0.0623857 (9.91367)
Neigh time (%) = 0.0358716 (5.70034)
Comm  time (%) = 0.153563 (24.4026)
Outpt time (%) = 0.00104815 (0.16656)
Other time (%) = 0.201735 (32.0576)

Nlocal:    1000 ave 1029 max 984 min
Histogram: 2 0 0 1 0 0 0 0 0 1
Nghost:    1060.25 ave 1073 max 1044 min
Histogram: 1 0 0 0 1 0 0 0 1 1
Neighs:    3081.25 ave 3202 max 2952 min
Histogram: 1 0 0 0 1 0 1 0 0 1

Total # of neighbors = 12325
Ave neighs/atom = 3.08125
Ave special neighs/atom = 5.925
Neighbor list builds = 43
Dangerous builds = 0
shell          head -n 2 Temp.txt | tail -n 1 >> Tempfile.txt
shell          head -n 2 Bond.txt | tail -n 1 >> Bondfile.txt
next           myTempStr
next           myBondStr
if "${myBond} <= 0" then "jump imdinput.txt nobonds"
jump           imdinput.txt loop2here

# specifies the run length in timesteps
run            2000
WARNING: Use special bonds = 0,1,1 with bond style fene (../bond_fene.cpp:188)
Memory usage per processor = 5.58295 Mbytes
Step Temp E_pair E_mol TotEng Press 
   78000    1.0004288    0.1890637    20.593436    22.282768   0.33873201 
   78100    1.0072786   0.18527634    20.583152    22.278969   0.40370828 
   78200    1.0024487   0.18173531    20.599428     22.28446   0.55680684 
   78300    1.0088845   0.17961321    20.591098     22.28366   0.51862113 
   78400   0.99193087   0.18106854    20.598637    22.267229   0.13068018 
   78500   0.98781306    0.1830148    20.587149    22.251513   0.16642331 
   78600    0.9832351   0.18491829    20.598772    22.258174   0.13850488 
   78700   0.99275555   0.18992637    20.591264    22.269952   0.40674426 
   78800   0.99463221   0.19191888    20.603927    22.287421   0.45777347 
   78900    1.0055579   0.19255394    20.594481    22.294995   0.35306253 
   79000    1.0016035   0.19478521    20.600944    22.297759    0.4546263 
   79100   0.98601607   0.19180949    20.607094    22.277558  0.093993559 
   79200   0.99738253   0.19021668    20.598584    22.284501    0.4381794 
   79300   0.99164906   0.19196484    20.589321    22.268387   0.23815166 
   79400   0.98871568   0.19167803    20.597926    22.272307   0.53670746 
   79500   0.98825673   0.19225644    20.598451    22.272722   0.43731275 
   79600   0.99842912   0.19091585    20.606644     22.29483   0.17993224 
   79700    1.0104807   0.18990966    20.603282    22.308534   0.20918862 
   79800    1.0166487   0.19026684    20.589786    22.304644    0.6144419 
   79900    1.0052102   0.18953863    20.609253     22.30623   0.27790974 
   80000    1.0147068   0.18591124    20.592629     22.30022   0.22776317 
Loop time of 0.63955 on 4 procs (4 MPI x 1 OpenMP) for 2000 steps with 4000 atoms

Pair  time (%) = 0.174701 (27.3162)
Bond  time (%) = 0.0619691 (9.68949)
Neigh time (%) = 0.0352661 (5.51421)
Comm  time (%) = 0.162278 (25.3738)
Outpt time (%) = 0.00100833 (0.157663)
Other time (%) = 0.204328 (31.9487)

Nlocal:    1000 ave 1034 max 975 min
Histogram: 1 0 0 2 0 0 0 0 0 1
Nghost:    1058.25 ave 1071 max 1031 min
Histogram: 1 0 0 0 0 0 0 0 1 2
Neighs:    3102.5 ave 3360 max 2930 min
Histogram: 1 1 0 0 0 1 0 0 0 1

Total # of neighbors = 12410
Ave neighs/atom = 3.1025
Ave special neighs/atom = 5.925
Neighbor list builds = 42
Dangerous builds = 0
shell          head -n 2 Temp.txt | tail -n 1 >> Tempfile.txt
shell          head -n 2 Bond.txt | tail -n 1 >> Bondfile.txt
next           myTempStr
next           myBondStr
if "${myBond} <= 0" then "jump imdinput.txt nobonds"
jump           imdinput.txt loop2here

# specifies the run length in timesteps
run            2000
WARNING: Use special bonds = 0,1,1 with bond style fene (../bond_fene.cpp:188)
Memory usage per processor = 5.58564 Mbytes
Step Temp E_pair E_mol TotEng Press 
   80000    1.0147068   0.18591124    20.592629     22.30022   0.22776317 
   80100    1.0149831   0.18560352    20.582903    22.290601   0.31123293 
   80200   0.99580025   0.19074769    20.586119    22.270194   0.26743688 
   80300   0.98442224   0.19533424    20.585426    22.257025   0.16703922 
   80400   0.98923334   0.19410959    20.575158    22.252747   0.32291809 
   80500    1.0040766   0.19180841    20.575297    22.272844   0.41446596 
   80600   0.99549567   0.19237607    20.602593    22.287839   0.47865406 
   80700   0.99263661   0.19710125    20.592081    22.277765   0.54274426 
   80800    1.0155905   0.19942252    20.581497    22.303924   0.19699758 
   80900   0.99946139   0.20185992     20.59036    22.291037  0.059834021 
   81000    0.9943049   0.20067454     20.59125    22.283009   0.63035773 
   81100   0.99529208   0.20339411    20.587951     22.28391   0.40269067 
   81200   0.98949293   0.19997572    20.585794    22.269638   0.59308529 
   81300   0.97673555   0.19636987    20.598793      22.2599   0.27093023 
   81400   0.98799441   0.19376066     20.59709    22.272472   0.32657307 
   81500   0.98839126   0.19140416    20.589161    22.262781   0.47676892 
   81600   0.99095332   0.19144299    20.575707    22.253208   0.35135095 
   81700   0.97817017   0.19370116    20.596044    22.256633  0.078358528 
   81800   0.99361365   0.19511517    20.574836        22.26   0.49423431 
   81900   0.99727106   0.19463636    20.575511     22.26568   0.20403423 
   82000   0.97907254   0.19855978    20.597162    22.263963   0.31702491 
Loop time of 0.638163 on 4 procs (4 MPI x 1 OpenMP) for 2000 steps with 4000 atoms

Pair  time (%) = 0.17529 (27.468)
Bond  time (%) = 0.0627319 (9.83007)
Neigh time (%) = 0.034801 (5.45331)
Comm  time (%) = 0.160173 (25.0991)
Outpt time (%) = 0.00110245 (0.172753)
Other time (%) = 0.204064 (31.9767)

Nlocal:    1000 ave 1027 max 956 min
Histogram: 1 0 0 0 0 0 1 0 1 1
Nghost:    1064.25 ave 1117 max 1026 min
Histogram: 1 1 0 0 0 1 0 0 0 1
Neighs:    3111 ave 3320 max 2875 min
Histogram: 1 0 0 0 1 0 1 0 0 1

Total # of neighbors = 12444
Ave neighs/atom = 3.111
Ave special neighs/atom = 5.925
Neighbor list builds = 41
Dangerous builds = 0
shell          head -n 2 Temp.txt | tail -n 1 >> Tempfile.txt
shell          head -n 2 Bond.txt | tail -n 1 >> Bondfile.txt
next           myTempStr
next           myBondStr
if "${myBond} <= 0" then "jump imdinput.txt nobonds"
jump           imdinput.txt loop2here

# specifies the run length in timesteps
run            2000
WARNING: Use special bonds = 0,1,1 with bond style fene (../bond_fene.cpp:188)
Memory usage per processor = 5.58369 Mbytes
Step Temp E_pair E_mol TotEng Press 
   82000   0.97907254   0.19855978    20.597162    22.263963   0.31702491 
   82100   0.99427325   0.20075647    20.590526     22.28232   0.31691624 
   82200    1.0031011   0.20135261    20.590823    22.296452   0.45779935 
   82300    1.0043759    0.1990354    20.590611    22.295833    0.2860163 
   82400    1.0102108    0.1964021    20.607141     22.31848   0.36924671 
   82500    1.0134315   0.19780929    20.591755    22.309332   0.41674816 
   82600    1.0142084   0.19963698    20.595975    22.316545    0.2891101 
   82700    1.0091446   0.19969177    20.598132    22.311163   0.38357734 
   82800    1.0172397   0.19556486    20.602067     22.32311   0.38135411 
   82900    1.0210476   0.19386504      20.6018    22.326854   0.50660425 
   83000    1.0101849   0.19280673    20.604981    22.312686    0.3480111 
   83100    1.0203528   0.19377866    20.594796    22.318721   0.15046194 
   83200    1.0112258   0.19352198     20.59173    22.301711   0.55392249 
   83300    1.0105087   0.19329557     20.58644    22.295119   0.16996322 
   83400    1.0029265   0.19268599    20.587609    22.284309   0.37244518 
   83500   0.99371384   0.19375129    20.595547    22.279496   0.48296274 
   83600   0.99171062   0.19353194    20.592262    22.272988   0.34147351 
   83700    1.0078442   0.19053736      20.5869    22.288825    0.3474218 
   83800    1.0015438   0.18724032    20.592639     22.28182   0.52597305 
   83900   0.99521985   0.18520909    20.608629    22.286294   0.27800884 
   84000   0.99528215   0.18761045    20.600552    22.280712   0.60568081 
Loop time of 0.641305 on 4 procs (4 MPI x 1 OpenMP) for 2000 steps with 4000 atoms

Pair  time (%) = 0.173154 (27.0002)
Bond  time (%) = 0.0595704 (9.28894)
Neigh time (%) = 0.0364902 (5.68999)
Comm  time (%) = 0.167873 (26.1768)
Outpt time (%) = 0.00110435 (0.172204)
Other time (%) = 0.203114 (31.6719)

Nlocal:    1000 ave 1046 max 966 min
Histogram: 1 0 0 2 0 0 0 0 0 1
Nghost:    1083.5 ave 1125 max 1049 min
Histogram: 1 1 0 0 0 0 0 1 0 1
Neighs:    3094.75 ave 3512 max 2833 min
Histogram: 1 1 0 0 1 0 0 0 0 1

Total # of neighbors = 12379
Ave neighs/atom = 3.09475
Ave special neighs/atom = 5.925
Neighbor list builds = 43
Dangerous builds = 0
shell          head -n 2 Temp.txt | tail -n 1 >> Tempfile.txt
shell          head -n 2 Bond.txt | tail -n 1 >> Bondfile.txt
next           myTempStr
next           myBondStr
if "${myBond} <= 0" then "jump imdinput.txt nobonds"
jump           imdinput.txt loop2here

# specifies the run length in timesteps
run            2000
WARNING: Use special bonds = 0,1,1 with bond style fene (../bond_fene.cpp:188)
Memory usage per processor = 5.58834 Mbytes
Step Temp E_pair E_mol TotEng Press 
   84000   0.99528215   0.18761045    20.600552    22.280712   0.60568081 
   84100    1.0011224   0.19210659     20.59088    22.284295   0.22177065 
   84200    1.0032571   0.19271738    20.592262    22.289489   0.27444999 
   84300     1.007853   0.19064984    20.598516    22.300567   0.50914701 
   84400    1.0034577   0.19324287    20.590521    22.288574   0.22362115 
   84500    1.0018006   0.19405117    20.586342    22.282718     0.676836 
   84600    1.0056998   0.20018486     20.58868    22.297037   0.34151593 
   84700      1.00237   0.20249469    20.605707    22.311381   0.12287351 
   84800    1.0003395   0.20052371    20.609204    22.309862    0.3577281 
   84900    1.0039056    0.1996715    20.586543    22.291696   0.45079435 
   85000    1.0135975   0.19421008    20.602232    22.316458   0.16321766 
   85100    1.0089592   0.19081916    20.608022    22.311902   0.35216711 
   85200    1.0188588   0.18579137    20.609381    22.323078   0.27015485 
   85300    1.0047076   0.19165202    20.625351    22.323687   0.18764564 
   85400    1.0069339   0.19359943    20.611992    22.315615   0.49662981 
   85500   0.99383579   0.19753844    20.623639    22.311559   0.27909119 
   85600    1.0074898   0.19518434    20.606855    22.312896   0.37586513 
   85700   0.99975581   0.19118264    20.596578    22.287019   0.18866409 
   85800    1.0055144   0.18880612    20.606948    22.303648   0.41844465 
   85900    1.0249833   0.18713531    20.599659    22.323885   0.32783984 
   86000    1.0314775   0.18656791    20.596749    22.330146   0.52462265 
Loop time of 0.654353 on 4 procs (4 MPI x 1 OpenMP) for 2000 steps with 4000 atoms

Pair  time (%) = 0.175527 (26.8245)
Bond  time (%) = 0.0613831 (9.38072)
Neigh time (%) = 0.0410177 (6.26843)
Comm  time (%) = 0.167369 (25.5777)
Outpt time (%) = 0.00113744 (0.173826)
Other time (%) = 0.207919 (31.7748)

Nlocal:    1000 ave 1032 max 977 min
Histogram: 2 0 0 0 0 0 1 0 0 1
Nghost:    1080.25 ave 1096 max 1069 min
Histogram: 1 0 0 2 0 0 0 0 0 1
Neighs:    3112.75 ave 3274 max 2943 min
Histogram: 1 0 0 0 1 1 0 0 0 1

Total # of neighbors = 12451
Ave neighs/atom = 3.11275
Ave special neighs/atom = 5.925
Neighbor list builds = 48
Dangerous builds = 0
shell          head -n 2 Temp.txt | tail -n 1 >> Tempfile.txt
shell          head -n 2 Bond.txt | tail -n 1 >> Bondfile.txt
next           myTempStr
next           myBondStr
if "${myBond} <= 0" then "jump imdinput.txt nobonds"
jump           imdinput.txt loop2here

# specifies the run length in timesteps
run            2000
WARNING: Use special bonds = 0,1,1 with bond style fene (../bond_fene.cpp:188)
Memory usage per processor = 5.5837 Mbytes
Step Temp E_pair E_mol TotEng Press 
   86000    1.0314775   0.18656791    20.596749    22.330146   0.52462265 
   86100    1.0362729   0.19143265    20.604483    22.349936   0.36060553 
   86200    1.0361222   0.19571275     20.61377    22.363277   0.34232193 
   86300    1.0249152    0.1967137    20.612369    22.346071   0.33427878 
   86400    1.0278827   0.19738048    20.599059    22.337878  0.069143764 
   86500    1.0237053   0.20082169     20.58834    22.324336   0.49223325 
   86600    1.0051555    0.1996401    20.607499    22.314496   0.30927512 
   86700    1.0217182   0.19866541    20.607184    22.338043   0.24377497 
   86800    1.0284146   0.19998705    20.594043    22.336266   0.32627394 
   86900    1.0314279    0.1990071     20.60574    22.351502   0.33503818 
   87000    1.0378961   0.19913758    20.588796    22.344388   0.34116526 
   87100    1.0434152   0.19967418    20.570451    22.334856   0.47067648 
   87200    1.0194431   0.19865458    20.589297    22.316733    0.3716748 
   87300    1.0169138   0.19463195    20.592541    22.312163   0.18570523 
   87400    1.0067179   0.18923232    20.601183    22.300115   0.37410907 
   87500    1.0025872   0.18887156    20.595759    22.288136    0.3562715 
   87600    1.0152482   0.18591153    20.570779    22.279183   0.29167007 
   87700    1.0014458   0.18571405    20.587759    22.275266   0.19901524 
   87800    1.0125302   0.18825328    20.586266    22.292935   0.45245579 
   87900    1.0063317   0.19208929    20.583638    22.284848   0.34718936 
   88000    1.0129869   0.19400637    20.559527    22.272634   0.30093814 
Loop time of 0.652775 on 4 procs (4 MPI x 1 OpenMP) for 2000 steps with 4000 atoms

Pair  time (%) = 0.175856 (26.9398)
Bond  time (%) = 0.0613806 (9.40303)
Neigh time (%) = 0.0481482 (7.37593)
Comm  time (%) = 0.161706 (24.772)
Outpt time (%) = 0.00112349 (0.17211)
Other time (%) = 0.20456 (31.337)

Nlocal:    1000 ave 1025 max 980 min
Histogram: 2 0 0 0 0 0 0 1 0 1
Nghost:    1075 ave 1080 max 1063 min
Histogram: 1 0 0 0 0 0 0 0 1 2
Neighs:    3104.75 ave 3328 max 2902 min
Histogram: 2 0 0 0 0 0 0 0 1 1

Total # of neighbors = 12419
Ave neighs/atom = 3.10475
Ave special neighs/atom = 5.925
Neighbor list builds = 58
Dangerous builds = 0
shell          head -n 2 Temp.txt | tail -n 1 >> Tempfile.txt
shell          head -n 2 Bond.txt | tail -n 1 >> Bondfile.txt
next           myTempStr
next           myBondStr
if "${myBond} <= 0" then "jump imdinput.txt nobonds"
jump           imdinput.txt loop2here

# specifies the run length in timesteps
run            2000
WARNING: Use special bonds = 0,1,1 with bond style fene (../bond_fene.cpp:188)
Memory usage per processor = 5.58346 Mbytes
Step Temp E_pair E_mol TotEng Press 
   88000    1.0129869   0.19400637    20.559527    22.272634   0.30093814 
   88100   0.98280717   0.19453718    20.577802    22.246182   0.28939769 
   88200   0.97498406   0.19428374    20.591079    22.247473    0.1413179 
   88300   0.98721249   0.19279489     20.57526    22.248504   0.19450138 
   88400   0.99173802   0.18968183    20.568905    22.245821   0.51427388 
   88500   0.99320601    0.1877467    20.572322    22.249506    0.6188839 
   88600   0.99331284   0.18623228    20.577198    22.253027    0.2274462 
   88700   0.97983245   0.18627235    20.588902    22.244555   0.26253394 
   88800   0.99265278    0.1850056    20.558339    22.231951   0.42804485 
   88900   0.99628047   0.18601689    20.574435    22.254499   0.45820527 
   89000   0.99154043   0.18711467    20.588265    22.262319   0.42658093 
   89100    1.0021732   0.18724455    20.579607    22.269736    0.2029194 
   89200   0.98771264   0.18627569    20.587695    22.255169   0.38099665 
   89300   0.99218181   0.18375724    20.580392     22.25205   0.28217914 
   89400   0.99329104   0.19106833    20.580568      22.2612   0.33443461 
   89500   0.99082978   0.19201114    20.585366     22.26325   0.30034987 
   89600   0.99081389   0.19227869    20.580981    22.259109   0.33074202 
   89700   0.98443959   0.19035178    20.601335    22.267977   0.36449846 
   89800   0.99286658   0.19026481     20.59134    22.270533   0.23350413 
   89900     1.000518   0.18944507    20.571043     22.26089   0.21331119 
   90000   0.98739041   0.18615231    20.591733      22.2586   0.41681699 
Loop time of 0.627033 on 4 procs (4 MPI x 1 OpenMP) for 2000 steps with 4000 atoms

Pair  time (%) = 0.170713 (27.2256)
Bond  time (%) = 0.0619309 (9.87682)
Neigh time (%) = 0.0356103 (5.67918)
Comm  time (%) = 0.153325 (24.4524)
Outpt time (%) = 0.00110251 (0.175829)
Other time (%) = 0.204351 (32.5901)

Nlocal:    1000 ave 1016 max 981 min
Histogram: 1 0 0 0 0 1 1 0 0 1
Nghost:    1059.75 ave 1103 max 1042 min
Histogram: 2 1 0 0 0 0 0 0 0 1
Neighs:    3054.25 ave 3209 max 2917 min
Histogram: 1 0 0 1 0 1 0 0 0 1

Total # of neighbors = 12217
Ave neighs/atom = 3.05425
Ave special neighs/atom = 5.925
Neighbor list builds = 43
Dangerous builds = 0
shell          head -n 2 Temp.txt | tail -n 1 >> Tempfile.txt
shell          head -n 2 Bond.txt | tail -n 1 >> Bondfile.txt
next           myTempStr
next           myBondStr
if "${myBond} <= 0" then "jump imdinput.txt nobonds"
jump           imdinput.txt loop2here

# specifies the run length in timesteps
run            2000
WARNING: Use special bonds = 0,1,1 with bond style fene (../bond_fene.cpp:188)
Memory usage per processor = 5.58077 Mbytes
Step Temp E_pair E_mol TotEng Press 
   90000   0.98739041   0.18615231    20.591733      22.2586   0.41681699 
   90100   0.98769291   0.18685359    20.595518    22.263541   0.32764386 
   90200    1.0013756    0.1876489    20.597703     22.28704   0.42312808 
   90300    1.0090011    0.1876224    20.594411    22.295156   0.24794296 
   90400    1.0052935   0.18690839    20.597386    22.291857   0.48626057 
   90500    1.0096754   0.18782338    20.595912     22.29787   0.24635494 
   90600    1.0203814   0.18875415    20.587431    22.306374   0.48011733 
   90700    1.0089866   0.19025764    20.607847    22.311207   0.31265477 
   90800    1.0121851   0.19099445    20.597561    22.306453   0.42248753 
   90900    1.0016683   0.19192576    20.600521    22.294573   0.35208485 
   91000   0.98329021   0.19441872    20.610884     22.27987   0.31549924 
   91100    0.9993357   0.19418392    20.579544    22.272357    0.3712861 
   91200    1.0022905   0.19714901    20.589292    22.289501   0.25972036 
   91300    1.0016514   0.20009383    20.588163    22.290359   0.36213129 
   91400    1.0102075    0.2067135    20.585271    22.306917   0.21857711 
   91500   0.99724263   0.20653972    20.601694    22.303724   0.25789003 
   91600    1.0089055   0.20083131    20.602197    22.316009   0.56855893 
   91700    1.0072818   0.19870706    20.591539    22.300791   0.15163577 
   91800    1.0065188   0.19745743    20.596468    22.303326   0.39070464 
   91900    1.0033384   0.20290585    20.597745    22.305282   0.45920827 
   92000   0.98888459    0.2024187     20.62042    22.305795   0.23658648 
Loop time of 0.644493 on 4 procs (4 MPI x 1 OpenMP) for 2000 steps with 4000 atoms

Pair  time (%) = 0.176036 (27.3138)
Bond  time (%) = 0.0610614 (9.47434)
Neigh time (%) = 0.0352656 (5.47183)
Comm  time (%) = 0.163641 (25.3907)
Outpt time (%) = 0.00107354 (0.166571)
Other time (%) = 0.207415 (32.1827)

Nlocal:    1000 ave 1027 max 963 min
Histogram: 1 0 0 0 1 0 0 0 1 1
Nghost:    1074 ave 1086 max 1052 min
Histogram: 1 0 0 0 0 0 1 0 0 2
Neighs:    3110.25 ave 3389 max 2784 min
Histogram: 1 0 0 0 1 0 1 0 0 1

Total # of neighbors = 12441
Ave neighs/atom = 3.11025
Ave special neighs/atom = 5.925
Neighbor list builds = 42
Dangerous builds = 0
shell          head -n 2 Temp.txt | tail -n 1 >> Tempfile.txt
shell          head -n 2 Bond.txt | tail -n 1 >> Bondfile.txt
next           myTempStr
next           myBondStr
if "${myBond} <= 0" then "jump imdinput.txt nobonds"
jump           imdinput.txt loop2here

# specifies the run length in timesteps
run            2000
WARNING: Use special bonds = 0,1,1 with bond style fene (../bond_fene.cpp:188)
Memory usage per processor = 5.58297 Mbytes
Step Temp E_pair E_mol TotEng Press 
   92000   0.98888459    0.2024187     20.62042    22.305795   0.23658648 
   92100    1.0228578    0.1969005    20.584835    22.315639   0.34402712 
   92200    1.0026143   0.19271184    20.615311    22.311568   0.43541131 
   92300   0.99775455   0.19510616    20.605401    22.296765   0.54358492 
   92400    1.0006983   0.19721208    20.604886     22.30277    0.2562494 
   92500    1.0089827   0.19785806    20.590207    22.301161   0.37291376 
   92600    1.0058882   0.19586211     20.60805    22.312367    0.2758061 
   92700    1.0150349   0.19402556    20.607399    22.323596   0.54311538 
   92800    1.0145966   0.19261723    20.592056    22.306188   0.13247702 
   92900    1.0104249   0.19008449    20.615975    22.321318   0.28032961 
   93000    1.0145436   0.19084552     20.60592    22.318201   0.26560532 
   93100    1.0156616    0.1924777    20.610651     22.32624   0.41906408 
   93200    1.0273902   0.19159904     20.60948    22.341779   0.38160415 
   93300    1.0188421   0.19373027    20.606608     22.32822   0.62994586 
   93400    1.0045882   0.19729919    20.624671    22.328476  0.016628427 
   93500    1.0112873   0.19575748    20.611248    22.323557   0.33899607 
   93600    1.0113292   0.19483826    20.606472    22.317925   0.43523246 
   93700    1.0111984   0.19413685    20.600079    22.310634   0.14837858 
   93800   0.99770633   0.19622597    20.596384    22.288795   0.53457274 
   93900    1.0030471   0.19997281    20.600663     22.30483   0.30845984 
   94000   0.99865155   0.19879487    20.594412     22.29081   0.23090713 
Loop time of 0.642529 on 4 procs (4 MPI x 1 OpenMP) for 2000 steps with 4000 atoms

Pair  time (%) = 0.175383 (27.2958)
Bond  time (%) = 0.0629708 (9.80046)
Neigh time (%) = 0.0341735 (5.31859)
Comm  time (%) = 0.160179 (24.9294)
Outpt time (%) = 0.00102335 (0.15927)
Other time (%) = 0.208799 (32.4965)

Nlocal:    1000 ave 1027 max 957 min
Histogram: 1 0 0 0 0 1 0 0 0 2
Nghost:    1067 ave 1102 max 1016 min
Histogram: 1 0 0 0 0 0 1 1 0 1
Neighs:    3078 ave 3353 max 2725 min
Histogram: 1 0 0 0 1 0 0 1 0 1

Total # of neighbors = 12312
Ave neighs/atom = 3.078
Ave special neighs/atom = 5.925
Neighbor list builds = 41
Dangerous builds = 0
shell          head -n 2 Temp.txt | tail -n 1 >> Tempfile.txt
shell          head -n 2 Bond.txt | tail -n 1 >> Bondfile.txt
next           myTempStr
next           myBondStr
if "${myBond} <= 0" then "jump imdinput.txt nobonds"
jump           imdinput.txt loop2here

# specifies the run length in timesteps
run            2000
WARNING: Use special bonds = 0,1,1 with bond style fene (../bond_fene.cpp:188)
Memory usage per processor = 5.58419 Mbytes
Step Temp E_pair E_mol TotEng Press 
   94000   0.99865155   0.19879487    20.594412     22.29081   0.23090713 
   94100    1.0051216   0.19370923    20.592689    22.293704   0.43798227 
   94200    1.0052347   0.18993282    20.587609    22.285017     0.256875 
   94300   0.99796863   0.19214405     20.58277    22.271493   0.24907795 
   94400   0.99519113   0.19115478    20.585589    22.269157   0.43044165 
   94500   0.98351764    0.1971224    20.591105    22.263135   0.45491769 
   94600   0.98481515   0.20036855     20.58213    22.259352   0.46178161 
   94700   0.96887996   0.19953212    20.599307    22.251795    0.2082335 
   94800   0.98004985   0.19089076    20.577038    22.237636   0.23591041 
   94900   0.97029618   0.18756524    20.584061    22.226706   0.60262811 
   95000   0.96641386   0.19304357    20.577275    22.219577   0.39999238 
   95100   0.97484518   0.19588328    20.576693    22.234478   0.32394752 
   95200   0.96917696   0.19243745    20.575682    22.221521   0.28575122 
   95300   0.96677407   0.19083512    20.586361    22.226995   0.42818473 
   95400   0.97014044   0.18861441    20.599097    22.242558   0.26802823 
   95500   0.98928167   0.18573119    20.575066    22.244348   0.25477765 
   95600   0.98380158   0.18748771    20.583513    22.246334   0.13535343 
   95700   0.97949834   0.18451197    20.582445    22.235837   0.27212338 
   95800   0.97539496   0.18146973    20.602925    22.247121   0.30334158 
   95900   0.98972987   0.17958007    20.591809    22.255613   0.27236211 
   96000    1.0028407   0.18098882    20.579515    22.264388   0.54820252 
Loop time of 0.639806 on 4 procs (4 MPI x 1 OpenMP) for 2000 steps with 4000 atoms

Pair  time (%) = 0.173485 (27.1152)
Bond  time (%) = 0.0621863 (9.71956)
Neigh time (%) = 0.0354836 (5.546)
Comm  time (%) = 0.159983 (25.0049)
Outpt time (%) = 0.00107735 (0.168388)
Other time (%) = 0.207591 (32.4459)

Nlocal:    1000 ave 1045 max 963 min
Histogram: 1 0 1 0 0 1 0 0 0 1
Nghost:    1069.5 ave 1106 max 1018 min
Histogram: 1 0 0 0 1 0 0 0 1 1
Neighs:    3052.25 ave 3375 max 2787 min
Histogram: 1 0 1 0 0 1 0 0 0 1

Total # of neighbors = 12209
Ave neighs/atom = 3.05225
Ave special neighs/atom = 5.925
Neighbor list builds = 42
Dangerous builds = 0
shell          head -n 2 Temp.txt | tail -n 1 >> Tempfile.txt
shell          head -n 2 Bond.txt | tail -n 1 >> Bondfile.txt
next           myTempStr
next           myBondStr
if "${myBond} <= 0" then "jump imdinput.txt nobonds"
jump           imdinput.txt loop2here

# specifies the run length in timesteps
run            2000
WARNING: Use special bonds = 0,1,1 with bond style fene (../bond_fene.cpp:188)
Memory usage per processor = 5.58761 Mbytes
Step Temp E_pair E_mol TotEng Press 
   96000    1.0028407   0.18098882    20.579515    22.264388   0.54820252 
   96100    1.0083266   0.18463429    20.577132    22.273878   0.24260913 
   96200    1.0021523   0.18552676     20.58602      22.2744    0.4939627 
   96300   0.99745653   0.18385159    20.598297    22.277959   0.25876533 
   96400   0.99301031   0.18403752    20.595048    22.268229  0.065710442 
   96500   0.99697143   0.18332038     20.59842    22.276824   0.21525925 
   96600   0.99154816      0.18483    20.606654    22.278435   0.34210485 
   96700    1.0020054   0.18932738    20.594584    22.286544   0.77994311 
   96800   0.99948301   0.19224216    20.594627    22.285719   0.18942206 
   96900    1.0047203   0.18778234    20.592282    22.286768   0.38975997 
   97000   0.98964277   0.18721727    20.602529     22.27384   0.20010252 
   97100   0.99756464   0.19193365    20.582693    22.270599   0.39239878 
   97200   0.98020187    0.1903091     20.59486    22.255104   0.36338531 
   97300   0.98076839   0.18949136     20.58931    22.249586   0.45123367 
   97400   0.99390721   0.18744997    20.587676    22.265614   0.47543977 
   97500    1.0036247   0.18832044    20.592904    22.286285   0.35711468 
   97600    1.0043884   0.18698183    20.588532     22.28172  0.049211159 
   97700   0.99818426   0.19013993    20.606304    22.293346   0.42657865 
   97800    1.0076205   0.18940985     20.60302    22.303483    0.2544242 
   97900   0.99925655   0.19134294    20.610009    22.299862   0.36265064 
   98000    1.0102192   0.19300813    20.616424    22.324382   0.25740947 
Loop time of 0.641535 on 4 procs (4 MPI x 1 OpenMP) for 2000 steps with 4000 atoms

Pair  time (%) = 0.170787 (26.6216)
Bond  time (%) = 0.0625886 (9.75607)
Neigh time (%) = 0.0354265 (5.52215)
Comm  time (%) = 0.163337 (25.4604)
Outpt time (%) = 0.00102222 (0.15934)
Other time (%) = 0.208373 (32.4805)

Nlocal:    1000 ave 1035 max 965 min
Histogram: 1 0 0 1 0 0 1 0 0 1
Nghost:    1085.25 ave 1126 max 1033 min
Histogram: 1 0 0 0 1 0 0 1 0 1
Neighs:    3044.75 ave 3285 max 2791 min
Histogram: 1 0 1 0 0 0 0 1 0 1

Total # of neighbors = 12179
Ave neighs/atom = 3.04475
Ave special neighs/atom = 5.925
Neighbor list builds = 42
Dangerous builds = 0
shell          head -n 2 Temp.txt | tail -n 1 >> Tempfile.txt
shell          head -n 2 Bond.txt | tail -n 1 >> Bondfile.txt
next           myTempStr
next           myBondStr
if "${myBond} <= 0" then "jump imdinput.txt nobonds"
jump           imdinput.txt loop2here

# specifies the run length in timesteps
run            2000
WARNING: Use special bonds = 0,1,1 with bond style fene (../bond_fene.cpp:188)
Memory usage per processor = 5.58492 Mbytes
Step Temp E_pair E_mol TotEng Press 
   98000    1.0102192   0.19300813    20.616424    22.324382   0.25740947 
   98100    1.0153724    0.1935554    20.601326    22.317559   0.29326885 
   98200    1.0082435   0.19291702    20.610449    22.315354   0.46502042 
   98300    1.0131178     0.193141    20.617809    22.330247   0.24904963 
   98400    1.0161392    0.1901845    20.612331    22.326344   0.39126463 
   98500    1.0057008   0.18697145    20.620836    22.315982   0.26372076 
   98600    1.0166981   0.18539087    20.602205    22.312262   0.42619719 
   98700    1.0048898   0.18725673    20.620486    22.314701   0.22516639 
   98800    1.0043633   0.18907584    20.609917    22.305161   0.27468334 
   98900    1.0040134   0.19254965    20.603453    22.301646   0.27690398 
   99000   0.99306529   0.19385898    20.609804    22.292889   0.38914094 
   99100    1.0034465   0.19459273    20.600448    22.299834   0.39034157 
   99200    1.0015353   0.19465218    20.597384    22.293963   0.16719109 
   99300    1.0021839   0.19297693    20.596911    22.292788   0.31477001 
   99400    1.0027054   0.19257709     20.59577    22.292029    0.5636678 
   99500    1.0180048   0.19084584    20.585449     22.30292   0.40142321 
   99600    1.0020458   0.19143315    20.596377    22.290503   0.24745968 
   99700   0.99205331   0.19097306    20.609962    22.288643   0.18532967 
   99800    1.0107555   0.18988542    20.586083    22.291723   0.38850704 
   99900    1.0069745   0.18874762    20.593808     22.29264    0.3363833 
  100000    1.0138356   0.18812594     20.58511    22.293609   0.49980917 
Loop time of 0.638809 on 4 procs (4 MPI x 1 OpenMP) for 2000 steps with 4000 atoms

Pair  time (%) = 0.174241 (27.276)
Bond  time (%) = 0.0624154 (9.77059)
Neigh time (%) = 0.0353359 (5.53153)
Comm  time (%) = 0.159564 (24.9783)
Outpt time (%) = 0.00105017 (0.164396)
Other time (%) = 0.206202 (32.2792)

Nlocal:    1000 ave 1025 max 977 min
Histogram: 1 0 0 1 0 1 0 0 0 1
Nghost:    1075.75 ave 1091 max 1040 min
Histogram: 1 0 0 0 0 0 0 0 1 2
Neighs:    3069 ave 3277 max 2970 min
Histogram: 2 0 1 0 0 0 0 0 0 1

Total # of neighbors = 12276
Ave neighs/atom = 3.069
Ave special neighs/atom = 5.925
Neighbor list builds = 42
Dangerous builds = 0
shell          head -n 2 Temp.txt | tail -n 1 >> Tempfile.txt
shell          head -n 2 Bond.txt | tail -n 1 >> Bondfile.txt
next           myTempStr
next           myBondStr
if "${myBond} <= 0" then "jump imdinput.txt nobonds"
jump           imdinput.txt loop2here

# specifies the run length in timesteps
run            2000
WARNING: Use special bonds = 0,1,1 with bond style fene (../bond_fene.cpp:188)
Memory usage per processor = 5.58517 Mbytes
Step Temp E_pair E_mol TotEng Press 
  100000    1.0138356   0.18812594     20.58511    22.293609   0.49980917 
  100100   0.99856574   0.18824449    20.599163    22.284882   0.17953656 
  100200    1.0018651   0.19237403    20.588416    22.283212   0.40516926 
  100300   0.99334902   0.19760697    20.580807    22.268065   0.26991851 
  100400   0.99104842    0.1983183    20.590058    22.274577   0.53016506 
  100500   0.99028406   0.19949807    20.576507    22.261059   0.18770773 
  100600   0.98284837   0.20094068     20.57585    22.250695   0.20533908 
  100700   0.98021763   0.20254235    20.586064    22.258565   0.47158095 
  100800   0.99497333   0.20064153    20.574839    22.267567   0.35196418 
  100900   0.98513548    0.1963941    20.581407    22.255135   0.36479718 
  101000    1.0014412    0.1927183    20.583643    22.278147   0.30800814 
  101100   0.99663633   0.19143953     20.59729     22.28331   0.27255577 
  101200   0.99956538   0.19434705      20.5848     22.27812   0.12629139 
  101300   0.99621953    0.1938779    20.592511    22.280345   0.39823711 
  101400    1.0161731   0.19158592    20.584109    22.299573   0.19614774 
  101500    1.0124197   0.19045326    20.593195    22.301899   0.44144956 
  101600    1.0076822   0.19088222    20.599368    22.301396   0.23023136 
  101700    1.0072722   0.19382841    20.586894    22.291253   0.35900521 
  101800   0.99837618   0.19406788    20.579055    22.270312   0.26193489 
  101900   0.99043763    0.1950229    20.583346    22.263654   0.38650295 
  102000   0.98323582    0.1945586    20.602069    22.271113   0.55166153 
Loop time of 0.625072 on 4 procs (4 MPI x 1 OpenMP) for 2000 steps with 4000 atoms

Pair  time (%) = 0.17322 (27.7121)
Bond  time (%) = 0.0620296 (9.9236)
Neigh time (%) = 0.0339018 (5.42366)
Comm  time (%) = 0.15111 (24.1749)
Outpt time (%) = 0.00104159 (0.166636)
Other time (%) = 0.203768 (32.5991)

Nlocal:    1000 ave 1030 max 967 min
Histogram: 1 0 0 0 1 0 1 0 0 1
Nghost:    1058 ave 1088 max 1031 min
Histogram: 1 0 0 1 0 1 0 0 0 1
Neighs:    3033 ave 3130 max 2889 min
Histogram: 1 0 0 1 0 0 0 0 0 2

Total # of neighbors = 12132
Ave neighs/atom = 3.033
Ave special neighs/atom = 5.925
Neighbor list builds = 41
Dangerous builds = 0
shell          head -n 2 Temp.txt | tail -n 1 >> Tempfile.txt
shell          head -n 2 Bond.txt | tail -n 1 >> Bondfile.txt
next           myTempStr
next           myBondStr
if "${myBond} <= 0" then "jump imdinput.txt nobonds"
jump           imdinput.txt loop2here

# specifies the run length in timesteps
run            2000
WARNING: Use special bonds = 0,1,1 with bond style fene (../bond_fene.cpp:188)
Memory usage per processor = 5.58443 Mbytes
Step Temp E_pair E_mol TotEng Press 
  102000   0.98323582    0.1945586    20.602069    22.271113   0.55166153 
  102100   0.97982664   0.19356612    20.609946    22.272885    0.2672511 
  102200   0.99293839   0.19352017    20.593934     22.27649    0.5162537 
  102300   0.98576536     0.190716    20.610449    22.279444  0.071938349 
  102400   0.98879789    0.1865671    20.619238    22.288631   0.14118682 
  102500    0.9976805   0.18114119    20.601777    22.279065    0.6787461 
  102600   0.99792805   0.18143392    20.597884    22.275836   0.26516724 
  102700   0.99306907   0.18098362     20.61222    22.282435   0.43537051 
  102800   0.99038532   0.18365783    20.607778    22.276643   0.35233033 
  102900   0.99791354   0.18605521    20.607476    22.290027   0.33287349 
  103000    1.0155848   0.18525286    20.593075    22.301325    0.4195964 
  103100    1.0030083    0.1861236    20.602504    22.292764    0.1914717 
  103200    1.0035439   0.18698867    20.600992    22.292921   0.43152984 
  103300    1.0108758   0.18930215    20.610303     22.31554    0.5161678 
  103400    1.0316831   0.19067568    20.581763    22.319576   0.25687773 
  103500    1.0119546   0.19043017    20.596599    22.304581   0.28614045 
  103600   0.99770705   0.19366377    20.597546    22.287396   0.37580713 
  103700    1.0020006    0.1929997     20.59299    22.288615   0.33029395 
  103800   0.99336222   0.19272186    20.601926    22.284318   0.34697681 
  103900   0.99929217   0.19185781    20.593891    22.284312   0.27231152 
  104000    1.0009129   0.18953604    20.580304    22.270834   0.43484937 
Loop time of 0.627979 on 4 procs (4 MPI x 1 OpenMP) for 2000 steps with 4000 atoms

Pair  time (%) = 0.169313 (26.9616)
Bond  time (%) = 0.0594856 (9.47255)
Neigh time (%) = 0.0348815 (5.55457)
Comm  time (%) = 0.160719 (25.593)
Outpt time (%) = 0.00100696 (0.16035)
Other time (%) = 0.202573 (32.2579)

Nlocal:    1000 ave 1022 max 971 min
Histogram: 1 0 0 0 0 1 0 1 0 1
Nghost:    1074.25 ave 1111 max 1033 min
Histogram: 1 0 1 0 0 0 0 0 1 1
Neighs:    3110.25 ave 3368 max 2845 min
Histogram: 1 0 0 0 1 1 0 0 0 1

Total # of neighbors = 12441
Ave neighs/atom = 3.11025
Ave special neighs/atom = 5.925
Neighbor list builds = 42
Dangerous builds = 0
shell          head -n 2 Temp.txt | tail -n 1 >> Tempfile.txt
shell          head -n 2 Bond.txt | tail -n 1 >> Bondfile.txt
next           myTempStr
next           myBondStr
if "${myBond} <= 0" then "jump imdinput.txt nobonds"
jump           imdinput.txt loop2here

# specifies the run length in timesteps
run            2000
WARNING: Use special bonds = 0,1,1 with bond style fene (../bond_fene.cpp:188)
Memory usage per processor = 5.58297 Mbytes
Step Temp E_pair E_mol TotEng Press 
  104000    1.0009129   0.18953604    20.580304    22.270834   0.43484937 
  104100   0.99343317   0.19213358    20.581667    22.263578   0.27612305 
  104200   0.98332069   0.19198756    20.588306    22.254906   0.21724755 
  104300   0.98552504   0.19374523    20.582924    22.254587   0.43088659 
  104400   0.98628868   0.19925929    20.582782    22.261104   0.23875595 
  104500    0.9769885   0.20198085    20.583285    22.250382   0.30227091 
  104600   0.96986092   0.19962606     20.59258    22.246634    0.1161933 
  104700   0.98750463   0.20017083     20.58606    22.267118   0.45336146 
  104800   0.97561231   0.20159948    20.588635    22.253288   0.25898807 
  104900   0.98692794    0.2004406    20.596953    22.277415   0.47785659 
  105000   0.99385793   0.20030091    20.582984    22.273699    0.3260582 
  105100    1.0018859    0.1994546    20.594951    22.296859     0.380833 
  105200   0.99213522   0.19389462    20.591804     22.27353   0.39763766 
  105300    1.0009497   0.18982781    20.583989    22.274866   0.36753696 
  105400   0.98545786   0.18788396    20.606522    22.272224   0.24682347 
  105500    1.0135661    0.1877173    20.575833    22.283519    0.4744074 
  105600    1.0004866   0.18849802    20.586949    22.275802  0.064350712 
  105700   0.99371439   0.19285389    20.580776    22.263829   0.20214693 
  105800   0.99502382   0.19255766    20.576944    22.261665   0.54735647 
  105900   0.97944162   0.19270926    20.586053    22.247558   0.31636798 
  106000   0.99311416   0.19225135    20.591257    22.272807   0.33206825 
Loop time of 0.637294 on 4 procs (4 MPI x 1 OpenMP) for 2000 steps with 4000 atoms

Pair  time (%) = 0.173593 (27.2392)
Bond  time (%) = 0.0591218 (9.27701)
Neigh time (%) = 0.0345005 (5.4136)
Comm  time (%) = 0.166709 (26.1588)
Outpt time (%) = 0.000945032 (0.148288)
Other time (%) = 0.202424 (31.7631)

Nlocal:    1000 ave 1046 max 949 min
Histogram: 1 0 0 1 0 0 0 1 0 1
Nghost:    1082.5 ave 1152 max 1025 min
Histogram: 1 0 0 1 1 0 0 0 0 1
Neighs:    3062.75 ave 3289 max 2805 min
Histogram: 1 0 1 0 0 0 0 0 1 1

Total # of neighbors = 12251
Ave neighs/atom = 3.06275
Ave special neighs/atom = 5.925
Neighbor list builds = 41
Dangerous builds = 0
shell          head -n 2 Temp.txt | tail -n 1 >> Tempfile.txt
shell          head -n 2 Bond.txt | tail -n 1 >> Bondfile.txt
next           myTempStr
next           myBondStr
if "${myBond} <= 0" then "jump imdinput.txt nobonds"
jump           imdinput.txt loop2here

# specifies the run length in timesteps
run            2000
WARNING: Use special bonds = 0,1,1 with bond style fene (../bond_fene.cpp:188)
Memory usage per processor = 5.58883 Mbytes
Step Temp E_pair E_mol TotEng Press 
  106000   0.99311416   0.19225135    20.591257    22.272807   0.33206825 
  106100   0.99056691   0.19218045    20.588861     22.26652   0.36578269 
  106200   0.99824738   0.18915089    20.581514    22.267662   0.43067127 
  106300   0.99432702   0.19083047    20.588802     22.27075  0.041247447 
  106400   0.98147966   0.18970509    20.584929    22.246486   0.24268104 
  106500   0.97385515    0.1895868    20.580217    22.230221   0.32537323 
  106600   0.97690662   0.18763713     20.58396    22.236591   0.45125149 
  106700   0.96978882   0.18593379    20.579366    22.219619   0.53458773 
  106800   0.99093115   0.18555483    20.566991    22.238571   0.29078173 
  106900   0.98653451   0.18581574    20.585185    22.250433  0.063993085 
  107000   0.97513179   0.18750108    20.609587     22.25942   0.41237632 
  107100   0.98170097   0.19026688    20.587537    22.249987   0.52272799 
  107200   0.98043706   0.19344073    20.576126    22.239854    0.3056472 
  107300   0.96936456   0.18920885     20.59417    22.237062   0.40695091 
  107400   0.96916208   0.18802718     20.59408    22.235487   0.39598093 
  107500   0.98438874   0.18773565    20.574263    22.238213   0.38431804 
  107600    0.9674629   0.18610659    20.604421    22.241359   0.33415888 
  107700   0.98871943   0.18479482    20.582822    22.250326   0.28105448 
  107800   0.99495923   0.18462374    20.587846    22.264535   0.34846733 
  107900   0.98937197   0.18674234    20.595285    22.265715   0.39165645 
  108000   0.98874774   0.19160595    20.592171    22.266528   0.29184137 
Loop time of 0.624891 on 4 procs (4 MPI x 1 OpenMP) for 2000 steps with 4000 atoms

Pair  time (%) = 0.171058 (27.374)
Bond  time (%) = 0.0596825 (9.55087)
Neigh time (%) = 0.0336581 (5.38623)
Comm  time (%) = 0.158725 (25.4005)
Outpt time (%) = 0.0010168 (0.162716)
Other time (%) = 0.20075 (32.1256)

Nlocal:    1000 ave 1025 max 957 min
Histogram: 1 0 0 0 0 0 1 0 0 2
Nghost:    1107 ave 1168 max 1066 min
Histogram: 1 1 0 0 1 0 0 0 0 1
Neighs:    3120.5 ave 3362 max 2848 min
Histogram: 1 0 1 0 0 0 0 0 1 1

Total # of neighbors = 12482
Ave neighs/atom = 3.1205
Ave special neighs/atom = 5.925
Neighbor list builds = 41
Dangerous builds = 0
shell          head -n 2 Temp.txt | tail -n 1 >> Tempfile.txt
shell          head -n 2 Bond.txt | tail -n 1 >> Bondfile.txt
next           myTempStr
next           myBondStr
if "${myBond} <= 0" then "jump imdinput.txt nobonds"
jump           imdinput.txt loop2here

# specifies the run length in timesteps
run            2000
WARNING: Use special bonds = 0,1,1 with bond style fene (../bond_fene.cpp:188)
Memory usage per processor = 5.58346 Mbytes
Step Temp E_pair E_mol TotEng Press 
  108000   0.98874774   0.19160595    20.592171    22.266528   0.29184137 
  108100   0.99532921   0.19472581    20.589868    22.277214   0.18395838 
  108200   0.98440997   0.19244227      20.6047    22.273388   0.34060626 
  108300    1.0092366   0.19025605    20.590925    22.294657   0.26331823 
  108400    1.0048364   0.19065392    20.597354    22.294886   0.57161785 
  108500   0.99382942   0.19032541    20.602305    22.283002   0.45088868 
  108600   0.99282869   0.19005828      20.6106    22.289529    0.3859854 
  108700    1.0044014   0.18991387    20.606821    22.302961   0.28963689 
  108800   0.99567557    0.1907097    20.601452    22.285302   0.14068489 
  108900   0.99570239   0.18803741    20.596353     22.27757   0.47328209 
  109000     1.010683   0.18816838     20.59255    22.296364   0.35337479 
  109100    1.0062776   0.18360057    20.605823    22.298463    0.2269313 
  109200    1.0121166   0.17877657    20.595871    22.292443    0.4549693 
  109300    1.0198148   0.17960349    20.582399    22.291343   0.14614912 
  109400    1.0054617   0.18416509    20.588722    22.280702  0.066652013 
  109500    1.0115815   0.18738477    20.587644    22.292022   0.36543968 
  109600   0.99322442   0.19181017    20.599588    22.280862   0.44896941 
  109700    0.9964451   0.18824761    20.599814    22.282356   0.32065962 
  109800    1.0021844   0.18745542    20.603844      22.2942   0.35661596 
  109900    1.0127642   0.18896679    20.593904    22.301637   0.39477098 
  110000    0.9968221   0.19152098    20.596702    22.283083  0.030347103 
Loop time of 0.622568 on 4 procs (4 MPI x 1 OpenMP) for 2000 steps with 4000 atoms

Pair  time (%) = 0.169535 (27.2315)
Bond  time (%) = 0.0611576 (9.82344)
Neigh time (%) = 0.0338237 (5.43294)
Comm  time (%) = 0.155671 (25.0046)
Outpt time (%) = 0.000965297 (0.155051)
Other time (%) = 0.201416 (32.3525)

Nlocal:    1000 ave 1017 max 982 min
Histogram: 1 0 1 0 0 0 0 0 1 1
Nghost:    1113 ave 1160 max 1095 min
Histogram: 3 0 0 0 0 0 0 0 0 1
Neighs:    3050.5 ave 3224 max 2942 min
Histogram: 2 0 0 0 0 1 0 0 0 1

Total # of neighbors = 12202
Ave neighs/atom = 3.0505
Ave special neighs/atom = 5.925
Neighbor list builds = 41
Dangerous builds = 0
shell          head -n 2 Temp.txt | tail -n 1 >> Tempfile.txt
shell          head -n 2 Bond.txt | tail -n 1 >> Bondfile.txt
next           myTempStr
next           myBondStr
if "${myBond} <= 0" then "jump imdinput.txt nobonds"
jump           imdinput.txt loop2here

# specifies the run length in timesteps
run            2000
WARNING: Use special bonds = 0,1,1 with bond style fene (../bond_fene.cpp:188)
Memory usage per processor = 5.58102 Mbytes
Step Temp E_pair E_mol TotEng Press 
  110000    0.9968221   0.19152098    20.596702    22.283083  0.030347103 
  110100   0.99830255   0.19295733    20.596431    22.286468   0.48453141 
  110200    1.0072759    0.1929941     20.59425     22.29778   0.38315156 
  110300       1.0103   0.19220119    20.575154    22.282426   0.42786084 
  110400   0.98028207   0.19019797    20.610945    22.271199   0.11454171 
  110500   0.99611406   0.18900532    20.590749    22.273552   0.41037793 
  110600   0.99076305    0.1896805    20.586639    22.262093   0.24645946 
  110700   0.99378318   0.18833955    20.591948     22.27059    0.4883787 
  110800   0.99545872   0.18759373    20.596941    22.277349   0.36580816 
  110900   0.99769362   0.18897978     20.59246    22.277606   0.10366122 
  111000   0.99736191   0.19142902     20.59509    22.282188   0.40736461 
  111100    1.0003933   0.19110841    20.593148    22.284471   0.13468689 
  111200   0.98996702   0.19234116    20.593983    22.270904   0.41800814 
  111300   0.99081657   0.19270805    20.587476    22.266038   0.24477138 
  111400   0.98958912    0.1902578    20.586985    22.261256   0.36053256 
  111500   0.98857795   0.19132447    20.596128    22.269949   0.41909122 
  111600    1.0118534   0.19130515    20.589719    22.298424   0.18382863 
  111700   0.99299804   0.19240951    20.604014    22.285548   0.46707656 
  111800    1.0031939   0.19653075    20.584995     22.28594   0.45261291 
  111900   0.98755513   0.19693609    20.592099    22.269997   0.49514986 
  112000   0.99138975   0.19824005    20.598824    22.283777   0.30780953 
Loop time of 0.620487 on 4 procs (4 MPI x 1 OpenMP) for 2000 steps with 4000 atoms

Pair  time (%) = 0.169301 (27.2852)
Bond  time (%) = 0.0619071 (9.97719)
Neigh time (%) = 0.0346656 (5.58685)
Comm  time (%) = 0.151705 (24.4494)
Outpt time (%) = 0.000950217 (0.153141)
Other time (%) = 0.201957 (32.5482)

Nlocal:    1000 ave 1026 max 987 min
Histogram: 1 1 1 0 0 0 0 0 0 1
Nghost:    1095.25 ave 1139 max 1077 min
Histogram: 2 1 0 0 0 0 0 0 0 1
Neighs:    3097 ave 3281 max 3004 min
Histogram: 1 1 1 0 0 0 0 0 0 1

Total # of neighbors = 12388
Ave neighs/atom = 3.097
Ave special neighs/atom = 5.925
Neighbor list builds = 42
Dangerous builds = 0
shell          head -n 2 Temp.txt | tail -n 1 >> Tempfile.txt
shell          head -n 2 Bond.txt | tail -n 1 >> Bondfile.txt
next           myTempStr
next           myBondStr
if "${myBond} <= 0" then "jump imdinput.txt nobonds"
jump           imdinput.txt loop2here

# specifies the run length in timesteps
run            2000
WARNING: Use special bonds = 0,1,1 with bond style fene (../bond_fene.cpp:188)
Memory usage per processor = 5.58395 Mbytes
Step Temp E_pair E_mol TotEng Press 
  112000   0.99138975   0.19824005    20.598824    22.283777   0.30780953 
  112100    1.0071804   0.19971944    20.590205    22.300317   0.49205718 
  112200   0.98897607    0.2011031    20.605258    22.289454   0.13059232 
  112300   0.98747774   0.20115445    20.582455    22.264456   0.43375069 
  112400    0.9890392   0.20117056    20.582071     22.26643   0.34703065 
  112500   0.98837283   0.20244334    20.585688     22.27032    0.4174229 
  112600   0.99169928   0.20293553    20.581604    22.271716   0.29428266 
  112700    0.9823703   0.20273914    20.594719    22.270646   0.29602112 
  112800   0.99753465   0.19888961    20.573517    22.268334   0.32111529 
  112900   0.99295693   0.19531219    20.592733    22.277109   0.33153277 
  113000   0.99302524   0.19750095    20.595755    22.282422   0.24453627 
  113100    1.0098984   0.19630078     20.57433      22.2851   0.30220501 
  113200    1.0002653   0.19599865    20.568876    22.264898   0.12796689 
  113300    1.0016433   0.19794047    20.570762    22.270792   0.54781563 
  113400   0.99025919   0.19952018     20.59022    22.274758   0.40337925 
  113500    1.0048999   0.19710271    20.584205    22.288281   0.42395888 
  113600    1.0068193   0.19460413    20.576471    22.280927   0.34053356 
  113700    1.0035515   0.19489844     20.59855      22.2984   0.22992721 
  113800   0.99683174   0.19709628     20.59082     22.28279    0.5067892 
  113900   0.99471978   0.19801712     20.58475    22.274474   0.21958393 
  114000    1.0032242   0.19625957     20.58014    22.280859   0.32954119 
Loop time of 0.637262 on 4 procs (4 MPI x 1 OpenMP) for 2000 steps with 4000 atoms

Pair  time (%) = 0.172358 (27.0467)
Bond  time (%) = 0.0586637 (9.20559)
Neigh time (%) = 0.0362186 (5.68347)
Comm  time (%) = 0.166529 (26.132)
Outpt time (%) = 0.000970483 (0.15229)
Other time (%) = 0.202521 (31.7799)

Nlocal:    1000 ave 1043 max 952 min
Histogram: 1 0 0 0 0 2 0 0 0 1
Nghost:    1074.25 ave 1121 max 1044 min
Histogram: 1 1 0 1 0 0 0 0 0 1
Neighs:    3107.25 ave 3363 max 2846 min
Histogram: 1 0 0 1 0 0 1 0 0 1

Total # of neighbors = 12429
Ave neighs/atom = 3.10725
Ave special neighs/atom = 5.925
Neighbor list builds = 43
Dangerous builds = 0
shell          head -n 2 Temp.txt | tail -n 1 >> Tempfile.txt
shell          head -n 2 Bond.txt | tail -n 1 >> Bondfile.txt
next           myTempStr
next           myBondStr
if "${myBond} <= 0" then "jump imdinput.txt nobonds"
jump           imdinput.txt loop2here

# specifies the run length in timesteps
run            2000
WARNING: Use special bonds = 0,1,1 with bond style fene (../bond_fene.cpp:188)
Memory usage per processor = 5.58761 Mbytes
Step Temp E_pair E_mol TotEng Press 
  114000    1.0032242   0.19625957     20.58014    22.280859   0.32954119 
  114100   0.99963685   0.19457498    20.580101    22.273756   0.31095915 
  114200    1.0029265   0.19197621    20.568555    22.264545   0.37441296 
  114300    1.0049172   0.19227456    20.573051    22.272325   0.45207113 
  114400   0.99518926   0.19342177    20.584372    22.270204   0.55250849 
  114500   0.98152147   0.19608545    20.594524    22.262524   0.26288793 
  114600   0.99733735   0.19797395    20.568497    22.262103   0.35300475 
  114700   0.98038655   0.19925515    20.586513    22.255981   0.46470003 
  114800   0.98717342   0.19784383    20.592727    22.270961    0.1643559 
  114900   0.99688771   0.19768325    20.582594    22.275235   0.47102462 
  115000   0.99367736   0.19940429    20.591468    22.281015   0.37385828 
  115100   0.99523039   0.19713179    20.582929    22.272533   0.45650379 
  115200     1.004451   0.19558757    20.588292    22.290179    0.1048773 
  115300   0.99444831   0.19544248    20.590257    22.276999   0.42271499 
  115400    1.0049498   0.19632394    20.586113    22.289485   0.50015015 
  115500    1.0011839   0.20078583    20.602436    22.304623   0.14750792 
  115600    1.0085529   0.20088107    20.586081    22.299413   0.30520403 
  115700    1.0111283   0.19616786    20.590289     22.30277   0.28824051 
  115800    1.0081329    0.1929686    20.588803    22.293593   0.43621042 
  115900   0.99682816    0.1925292    20.596497    22.283894   0.41516279 
  116000    1.0091615   0.19499755    20.594576    22.302938   0.24958483 
Loop time of 0.627477 on 4 procs (4 MPI x 1 OpenMP) for 2000 steps with 4000 atoms

Pair  time (%) = 0.172635 (27.5126)
Bond  time (%) = 0.06167 (9.82825)
Neigh time (%) = 0.0347512 (5.53825)
Comm  time (%) = 0.155508 (24.7831)
Outpt time (%) = 0.000955403 (0.152261)
Other time (%) = 0.201957 (32.1856)

Nlocal:    1000 ave 1007 max 984 min
Histogram: 1 0 0 0 0 0 0 0 1 2
Nghost:    1081 ave 1103 max 1040 min
Histogram: 1 0 0 0 0 0 0 1 1 1
Neighs:    3084.5 ave 3116 max 3046 min
Histogram: 1 0 1 0 0 0 0 0 0 2

Total # of neighbors = 12338
Ave neighs/atom = 3.0845
Ave special neighs/atom = 5.925
Neighbor list builds = 42
Dangerous builds = 0
shell          head -n 2 Temp.txt | tail -n 1 >> Tempfile.txt
shell          head -n 2 Bond.txt | tail -n 1 >> Bondfile.txt
next           myTempStr
next           myBondStr
if "${myBond} <= 0" then "jump imdinput.txt nobonds"
jump           imdinput.txt loop2here

# specifies the run length in timesteps
run            2000
WARNING: Use special bonds = 0,1,1 with bond style fene (../bond_fene.cpp:188)
Memory usage per processor = 5.58004 Mbytes
Step Temp E_pair E_mol TotEng Press 
  116000    1.0091615   0.19499755    20.594576    22.302938   0.24958483 
  116100   0.99799158   0.19808513    20.586186    22.280884   0.36893922 
  116200   0.98823633    0.1969964    20.597375    22.276355   0.37186198 
  116300   0.99885712   0.19480975    20.597211    22.289931   0.19680414 
  116400    1.0085877   0.19078106    20.588477    22.291761  0.035278642 
  116500   0.99789231   0.18712284    20.590316    22.273903   0.48323297 
  116600   0.99537079    0.1828301    20.578794    22.254307   0.30151045 
  116700    1.0151062   0.18318321     20.58253    22.287992   0.34083536 
  116800    1.0138293   0.18429462    20.594368    22.299027   0.55492484 
  116900   0.99935829   0.18268675    20.600636    22.281985   0.13724445 
  117000    1.0048283   0.18489697    20.577085    22.268847   0.41214353 
  117100   0.99116803   0.18772406    20.598981    22.273085   0.33055052 
  117200    0.9943331   0.18731559    20.585511    22.263953   0.27093891 
  117300   0.98777723   0.18665854    20.601596     22.26955   0.11489591 
  117400   0.99103319   0.18927559    20.583177    22.258631   0.39195522 
  117500   0.98018602   0.19061355    20.563763    22.224288   0.70346456 
  117600    0.9736673   0.19043353    20.579485    22.230054   0.11798298 
  117700   0.95878276   0.19082974    20.584285    22.212929   0.12467764 
  117800   0.97805356   0.18850223    20.574015    22.229231   0.24448247 
  117900   0.98939763   0.18899219    20.573963    22.246681    0.2251743 
  118000   0.98901262   0.19041315    20.591513    22.265074   0.24456068 
Loop time of 0.622372 on 4 procs (4 MPI x 1 OpenMP) for 2000 steps with 4000 atoms

Pair  time (%) = 0.169211 (27.1881)
Bond  time (%) = 0.0620989 (9.97778)
Neigh time (%) = 0.0337121 (5.41671)
Comm  time (%) = 0.153503 (24.6642)
Outpt time (%) = 0.0010345 (0.166219)
Other time (%) = 0.202812 (32.587)

Nlocal:    1000 ave 1018 max 983 min
Histogram: 1 0 0 1 0 0 1 0 0 1
Nghost:    1075.5 ave 1089 max 1059 min
Histogram: 1 0 0 0 0 1 1 0 0 1
Neighs:    3055.75 ave 3193 max 2947 min
Histogram: 1 1 0 0 0 0 1 0 0 1

Total # of neighbors = 12223
Ave neighs/atom = 3.05575
Ave special neighs/atom = 5.925
Neighbor list builds = 41
Dangerous builds = 0
shell          head -n 2 Temp.txt | tail -n 1 >> Tempfile.txt
shell          head -n 2 Bond.txt | tail -n 1 >> Bondfile.txt
next           myTempStr
next           myBondStr
if "${myBond} <= 0" then "jump imdinput.txt nobonds"
jump           imdinput.txt loop2here

# specifies the run length in timesteps
run            2000
WARNING: Use special bonds = 0,1,1 with bond style fene (../bond_fene.cpp:188)
Memory usage per processor = 5.58077 Mbytes
Step Temp E_pair E_mol TotEng Press 
  118000   0.98901262   0.19041315    20.591513    22.265074   0.24456068 
  118100   0.99516014    0.1924373     20.58422    22.269024   0.34733735 
  118200   0.99770926    0.1924002    20.592979    22.281569   0.45512106 
  118300    1.0159029   0.19308797     20.58299    22.299551   0.44542847 
  118400    1.0108857   0.19039212      20.5889    22.295242   0.27251528 
  118500    1.0151701   0.18890412    20.588364    22.299642    0.2935335 
  118600    1.0149761   0.19016138    20.585298    22.297543   0.41210828 
  118700   0.99836381    0.1933356    20.594155    22.284662   0.39634824 
  118800   0.99411468   0.19399486    20.590116     22.27491   0.34344531 
  118900    1.0005356   0.19514159    20.591614    22.287184   0.29729648 
  119000    1.0097968   0.19612022    20.595242    22.305679   0.23262018 
  119100    1.0191555   0.19713213    20.584988    22.310472   0.45094028 
  119200    1.0263128   0.19984466    20.574663    22.313592   0.18910285 
  119300    1.0099853   0.20207765    20.595265    22.311942   0.43216227 
  119400    1.0127024   0.20507091    20.591773    22.315518   0.27224186 
  119500    1.0023715   0.20343163    20.608941    22.315554  0.075032006 
  119600    1.0002279   0.20495871    20.592378    22.297303   0.48276405 
  119700    0.9917119    0.2051649    20.602235    22.294596   0.17424749 
  119800   0.98547654   0.20378268    20.593345    22.274973   0.40016126 
  119900   0.98611635   0.20169257    20.609668    22.290165   0.29460513 
  120000   0.99001799   0.20105277     20.61007    22.295778   0.22296634 
Loop time of 0.617331 on 4 procs (4 MPI x 1 OpenMP) for 2000 steps with 4000 atoms

Pair  time (%) = 0.170383 (27.5999)
Bond  time (%) = 0.0614899 (9.9606)
Neigh time (%) = 0.0335631 (5.43681)
Comm  time (%) = 0.149371 (24.1962)
Outpt time (%) = 0.000950396 (0.153952)
Other time (%) = 0.201574 (32.6525)

Nlocal:    1000 ave 1034 max 964 min
Histogram: 1 0 0 0 1 0 1 0 0 1
Nghost:    1070.5 ave 1104 max 1035 min
Histogram: 1 0 1 0 0 0 0 1 0 1
Neighs:    3140 ave 3256 max 3003 min
Histogram: 1 0 0 0 0 1 1 0 0 1

Total # of neighbors = 12560
Ave neighs/atom = 3.14
Ave special neighs/atom = 5.925
Neighbor list builds = 42
Dangerous builds = 0
shell          head -n 2 Temp.txt | tail -n 1 >> Tempfile.txt
shell          head -n 2 Bond.txt | tail -n 1 >> Bondfile.txt
next           myTempStr
next           myBondStr
if "${myBond} <= 0" then "jump imdinput.txt nobonds"
jump           imdinput.txt loop2here

# specifies the run length in timesteps
run            2000
WARNING: Use special bonds = 0,1,1 with bond style fene (../bond_fene.cpp:188)
Memory usage per processor = 5.58468 Mbytes
Step Temp E_pair E_mol TotEng Press 
  120000   0.99001799   0.20105277     20.61007    22.295778   0.22296634 
  120100    1.0001101    0.2029306    20.596683    22.299404   0.52693103 
  120200    1.0121136   0.20622929    20.598021    22.322042   0.35040597 
  120300    1.0160116   0.20873569    20.600161    22.332533   0.40561593 
  120400    1.0049162    0.2062839     20.60479    22.318072    0.2287411 
  120500    0.9991168   0.20234798    20.605583    22.306232   0.31111829 
  120600    1.0057465   0.19409763    20.591342    22.293683   0.27222656 
  120700    1.0104195   0.18918437    20.591886    22.296321   0.30968778 
  120800    1.0166996   0.18930198    20.575803    22.289773   0.40718279 
  120900    1.0099275   0.18760853    20.605459     22.30758   0.30014485 
  121000    1.0168146    0.1868361      20.5792    22.290877   0.39474789 
  121100    1.0148317   0.18548352    20.578291    22.285641   0.35791627 
  121200   0.99803611   0.18064284    20.597855    22.275178   0.39616121 
  121300    1.0050792   0.17808511    20.573035    22.258362   0.21968792 
  121400   0.98602432   0.17852329    20.603244    22.260434   0.20035605 
  121500    1.0011886   0.18079072    20.589343    22.271541   0.45491768 
  121600   0.99679271   0.18656448    20.589924    22.271304   0.34413255 
  121700   0.99495742   0.19013205    20.597716    22.279911   0.43348348 
  121800   0.98850134   0.19549529    20.591719    22.269596   0.27449177 
  121900   0.98447981   0.19709938    20.600393    22.273843   0.43598867 
  122000   0.98239944   0.19758284    20.604573    22.275387   0.48834114 
Loop time of 0.614387 on 4 procs (4 MPI x 1 OpenMP) for 2000 steps with 4000 atoms

Pair  time (%) = 0.168429 (27.4141)
Bond  time (%) = 0.0613994 (9.9936)
Neigh time (%) = 0.0342541 (5.57532)
Comm  time (%) = 0.149601 (24.3497)
Outpt time (%) = 0.000947237 (0.154176)
Other time (%) = 0.199757 (32.5131)

Nlocal:    1000 ave 1020 max 976 min
Histogram: 1 0 0 0 0 1 1 0 0 1
Nghost:    1130 ave 1155 max 1106 min
Histogram: 2 0 0 0 0 0 0 0 0 2
Neighs:    3036.75 ave 3131 max 2860 min
Histogram: 1 0 0 0 0 0 0 1 1 1

Total # of neighbors = 12147
Ave neighs/atom = 3.03675
Ave special neighs/atom = 5.925
Neighbor list builds = 43
Dangerous builds = 0
shell          head -n 2 Temp.txt | tail -n 1 >> Tempfile.txt
shell          head -n 2 Bond.txt | tail -n 1 >> Bondfile.txt
next           myTempStr
next           myBondStr
if "${myBond} <= 0" then "jump imdinput.txt nobonds"
jump           imdinput.txt loop2here

# specifies the run length in timesteps
run            2000
WARNING: Use special bonds = 0,1,1 with bond style fene (../bond_fene.cpp:188)
Memory usage per processor = 5.58199 Mbytes
Step Temp E_pair E_mol TotEng Press 
  122000   0.98239944   0.19758284    20.604573    22.275387   0.48834114 
  122100   0.99486054   0.19684696      20.5869    22.275665   0.43361947 
  122200   0.99252151   0.19414294     20.59293    22.275483     0.132236 
  122300   0.99270642   0.19007252      20.5808     22.25956   0.23519367 
  122400   0.98673709   0.18736157      20.6009    22.267997   0.41124449 
  122500   0.99217295   0.18620471    20.578155    22.252247   0.51647338 
  122600   0.99390733   0.18378872    20.592634    22.266911   0.55393131 
  122700   0.99375552   0.18535277    20.571326     22.24694   0.10695812 
  122800   0.99322128   0.18620867    20.579817    22.255485   0.15772914 
  122900   0.99097224   0.19116425    20.589037    22.266288   0.43136508 
  123000    1.0036732    0.1954129     20.56533    22.265876   0.30014068 
  123100   0.99762866   0.19743319    20.574688     22.26819   0.13131054 
  123200    1.0036634   0.20039765    20.579867    22.285383   0.31251551 
  123300    1.0039066   0.20135333    20.584839    22.291675   0.45185053 
  123400    1.0069084   0.19886429    20.590214    22.299064   0.26965038 
  123500    1.0090057   0.19647016    20.589214    22.298814   0.20349225 
  123600    1.0115855   0.19388144    20.576538    22.287418   0.27150294 
  123700    1.0001152   0.19223472    20.578321    22.270353   0.24180495 
  123800   0.99445734   0.18518956    20.585859    22.262362   0.30039339 
  123900   0.99951056   0.18505243    20.582243    22.266186   0.66734637 
  124000   0.99293771   0.18769197    20.586955    22.263682   0.30503273 
Loop time of 0.61556 on 4 procs (4 MPI x 1 OpenMP) for 2000 steps with 4000 atoms

Pair  time (%) = 0.16815 (27.3166)
Bond  time (%) = 0.0620033 (10.0727)
Neigh time (%) = 0.0345424 (5.61154)
Comm  time (%) = 0.147674 (23.9902)
Outpt time (%) = 0.00100273 (0.162897)
Other time (%) = 0.202187 (32.8461)

Nlocal:    1000 ave 1035 max 975 min
Histogram: 1 0 0 2 0 0 0 0 0 1
Nghost:    1074.25 ave 1104 max 1031 min
Histogram: 1 0 0 0 1 0 0 0 1 1
Neighs:    3011.25 ave 3258 max 2856 min
Histogram: 1 1 0 0 1 0 0 0 0 1

Total # of neighbors = 12045
Ave neighs/atom = 3.01125
Ave special neighs/atom = 5.925
Neighbor list builds = 43
Dangerous builds = 0
shell          head -n 2 Temp.txt | tail -n 1 >> Tempfile.txt
shell          head -n 2 Bond.txt | tail -n 1 >> Bondfile.txt
next           myTempStr
next           myBondStr
if "${myBond} <= 0" then "jump imdinput.txt nobonds"
jump           imdinput.txt loop2here

# specifies the run length in timesteps
run            2000
WARNING: Use special bonds = 0,1,1 with bond style fene (../bond_fene.cpp:188)
Memory usage per processor = 5.58614 Mbytes
Step Temp E_pair E_mol TotEng Press 
  124000   0.99293771   0.18769197    20.586955    22.263682   0.30503273 
  124100    1.0016115   0.18687094    20.596753    22.285666   0.50610003 
  124200    1.0009802   0.18485655    20.593195    22.279147   0.25047542 
  124300    1.0106956   0.18412067    20.574508    22.274293   0.16666937 
  124400   0.99423779   0.18524821    20.577279    22.253511  0.046826403 
  124500   0.99960644   0.18531607    20.562181    22.246532   0.26504635 
  124600   0.99540647   0.18429145    20.587381    22.264409   0.65389601 
  124700   0.99121527   0.18510133    20.591826    22.263379   0.17914351 
  124800   0.99420662   0.18201808    20.587757    22.260712   0.32688849 
  124900   0.99528683   0.18025373     20.59094    22.263751   0.23643551 
  125000    1.0050916   0.18027873    20.576893    22.264432   0.52952924 
  125100   0.99263864   0.18221424    20.593346    22.264146   0.26301966 
  125200   0.98088555   0.18510746    20.593178    22.249246    0.2520431 
  125300   0.97666106   0.18806191    20.595305    22.247992   0.26971981 
  125400   0.98666769   0.18735372    20.574127    22.241112   0.50393439 
  125500   0.97202565   0.18556601    20.591867    22.235107   0.40927227 
  125600   0.98269721   0.18454706    20.574849    22.233073   0.29974974 
  125700   0.97482591   0.18435117    20.591951    22.238176   0.31917472 
  125800   0.98433177   0.18727857     20.58506    22.248467   0.40413161 
  125900   0.98094792   0.18729089    20.572825     22.23117   0.55153676 
  126000   0.97375004   0.19187027    20.590287    22.242417   0.13774797 
Loop time of 0.613132 on 4 procs (4 MPI x 1 OpenMP) for 2000 steps with 4000 atoms

Pair  time (%) = 0.166372 (27.1348)
Bond  time (%) = 0.0612021 (9.98189)
Neigh time (%) = 0.032995 (5.3814)
Comm  time (%) = 0.150405 (24.5306)
Outpt time (%) = 0.000994146 (0.162142)
Other time (%) = 0.201164 (32.8092)

Nlocal:    1000 ave 1015 max 973 min
Histogram: 1 0 0 0 0 0 1 0 0 2
Nghost:    1082.25 ave 1126 max 1037 min
Histogram: 1 1 0 0 0 0 0 0 1 1
Neighs:    3102.75 ave 3178 max 3021 min
Histogram: 1 0 1 0 0 0 0 0 1 1

Total # of neighbors = 12411
Ave neighs/atom = 3.10275
Ave special neighs/atom = 5.925
Neighbor list builds = 41
Dangerous builds = 0
shell          head -n 2 Temp.txt | tail -n 1 >> Tempfile.txt
shell          head -n 2 Bond.txt | tail -n 1 >> Bondfile.txt
next           myTempStr
next           myBondStr
if "${myBond} <= 0" then "jump imdinput.txt nobonds"
jump           imdinput.txt loop2here

# specifies the run length in timesteps
run            2000
WARNING: Use special bonds = 0,1,1 with bond style fene (../bond_fene.cpp:188)
Memory usage per processor = 5.58028 Mbytes
Step Temp E_pair E_mol TotEng Press 
  126000   0.97375004   0.19187027    20.590287    22.242417   0.13774797 
  126100   0.97400135    0.1916382    20.582921    22.235196    0.1864722 
  126200   0.97742195   0.19264484    20.581013    22.239424   0.18620421 
  126300   0.96621998   0.19208628    20.597126     22.23818   0.46392692 
  126400   0.98037425   0.19095997    20.577688    22.238841   0.32141893 
  126500   0.98063362   0.18765057    20.594538    22.252771   0.43168869 
  126600   0.97117665   0.18798124    20.610397    22.254779   0.19385491 
  126700    0.9994459   0.18792735    20.579772    22.266494   0.63787909 
  126800   0.97795128   0.18773095    20.607801    22.262093   0.29744787 
  126900   0.99504596   0.18943215    20.584541    22.266169   0.66315314 
  127000   0.99546207   0.19452049    20.593894    22.281234  0.083969651 
  127100   0.99167109   0.19827639    20.608517    22.293929   0.15137628 
  127200   0.98807962   0.19462784    20.599854    22.276231   0.33860281 
  127300   0.98740154   0.19176664    20.600542     22.27304   0.49154293 
  127400   0.99117631    0.1926708    20.596386    22.275449   0.23181644 
  127500    1.0003881   0.19173431    20.591468    22.283409   0.56254515 
  127600    1.0133763   0.19029692    20.590285    22.300266   0.31120438 
  127700    1.0151284   0.18907332    20.602297    22.313682   0.41361009 
  127800     1.017057   0.18867411    20.597389    22.311267   0.26885175 
  127900    1.0219122   0.18581238    20.599938    22.318235   0.38814908 
  128000    1.0146265   0.18443417    20.605867    22.311861   0.41610452 
Loop time of 0.609633 on 4 procs (4 MPI x 1 OpenMP) for 2000 steps with 4000 atoms

Pair  time (%) = 0.167711 (27.5102)
Bond  time (%) = 0.0618557 (10.1464)
Neigh time (%) = 0.0325207 (5.33447)
Comm  time (%) = 0.146171 (23.9769)
Outpt time (%) = 0.000942528 (0.154606)
Other time (%) = 0.200432 (32.8775)

Nlocal:    1000 ave 1027 max 972 min
Histogram: 1 0 0 0 1 1 0 0 0 1
Nghost:    1101.25 ave 1125 max 1079 min
Histogram: 1 0 1 0 0 0 1 0 0 1
Neighs:    3033.75 ave 3210 max 2815 min
Histogram: 1 0 0 0 1 0 0 1 0 1

Total # of neighbors = 12135
Ave neighs/atom = 3.03375
Ave special neighs/atom = 5.925
Neighbor list builds = 41
Dangerous builds = 0
shell          head -n 2 Temp.txt | tail -n 1 >> Tempfile.txt
shell          head -n 2 Bond.txt | tail -n 1 >> Bondfile.txt
next           myTempStr
next           myBondStr
if "${myBond} <= 0" then "jump imdinput.txt nobonds"
jump           imdinput.txt loop2here

# specifies the run length in timesteps
run            2000
WARNING: Use special bonds = 0,1,1 with bond style fene (../bond_fene.cpp:188)
Memory usage per processor = 5.5837 Mbytes
Step Temp E_pair E_mol TotEng Press 
  128000    1.0146265   0.18443417    20.605867    22.311861   0.41610452 
  128100    1.0123318   0.18601481    20.615998    22.320131   0.41604467 
  128200    1.0095156   0.18640768    20.590228     22.29053  0.098174132 
  128300   0.99537487   0.18404516     20.60612    22.282855   0.43783401 
  128400   0.99973945    0.1816033    20.596034    22.276871   0.54502703 
  128500   0.99142517   0.18371811    20.607447    22.277931   0.13909199 
  128600   0.98997974   0.18858943    20.609582     22.28277   0.24643121 
  128700    1.0003641    0.1913913    20.598974    22.290536   0.52116722 
  128800    1.0013215    0.1924204    20.585972    22.279999   0.35248521 
  128900   0.99277997   0.19133036     20.59166    22.271788    0.4909867 
  129000    1.0033413   0.19121279    20.588915    22.284763   0.23087347 
  129100   0.99689368   0.19142551    20.584815    22.271207   0.54494425 
  129200   0.99293658   0.19326584    20.577792     22.26009   0.27024069 
  129300   0.98696191   0.19284061    20.582756    22.255669   0.46356843 
  129400   0.99487385   0.19414564    20.592343    22.278426     0.424479 
  129500    1.0061528   0.19543836    20.586408    22.290699   0.44832363 
  129600    1.0031762   0.19748894    20.586889    22.288766   0.25239561 
  129700    1.0014104   0.19548413    20.587736     22.28496   0.30682884 
  129800    1.0041249   0.19368632     20.58476    22.284258    0.3205639 
  129900    1.0220484   0.19349546    20.565979    22.292164   0.26593244 
  130000    1.0023682   0.19484204    20.589883    22.287901   0.30024761 
Loop time of 0.606755 on 4 procs (4 MPI x 1 OpenMP) for 2000 steps with 4000 atoms

Pair  time (%) = 0.168825 (27.8243)
Bond  time (%) = 0.0616987 (10.1686)
Neigh time (%) = 0.0322361 (5.31287)
Comm  time (%) = 0.142601 (23.5022)
Outpt time (%) = 0.000994921 (0.163974)
Other time (%) = 0.2004 (33.0281)

Nlocal:    1000 ave 1044 max 958 min
Histogram: 1 0 0 0 1 1 0 0 0 1
Nghost:    1065.25 ave 1143 max 1020 min
Histogram: 2 0 0 1 0 0 0 0 0 1
Neighs:    3077.75 ave 3403 max 2923 min
Histogram: 1 2 0 0 0 0 0 0 0 1

Total # of neighbors = 12311
Ave neighs/atom = 3.07775
Ave special neighs/atom = 5.925
Neighbor list builds = 41
Dangerous builds = 0
shell          head -n 2 Temp.txt | tail -n 1 >> Tempfile.txt
shell          head -n 2 Bond.txt | tail -n 1 >> Bondfile.txt
next           myTempStr
next           myBondStr
if "${myBond} <= 0" then "jump imdinput.txt nobonds"
jump           imdinput.txt loop2here

# specifies the run length in timesteps
run            2000
WARNING: Use special bonds = 0,1,1 with bond style fene (../bond_fene.cpp:188)
Memory usage per processor = 5.58907 Mbytes
Step Temp E_pair E_mol TotEng Press 
  130000    1.0023682   0.19484204    20.589883    22.287901   0.30024761 
  130100    1.0056422   0.19290826     20.58448    22.285475   0.51785292 
  130200    1.0063452   0.19406485    20.578688    22.281894    0.3989803 
  130300    1.0031796   0.19550166    20.571518    22.271412   0.19773688 
  130400    1.0028337   0.19413342    20.580696    22.278704   0.37193028 
  130500   0.99205874   0.19201262    20.595198    22.274927   0.20822677 
  130600    0.9998533   0.18973792    20.588697     22.27784   0.46404965 
  130700   0.98922661   0.19070946    20.591717    22.265895   0.45101375 
  130800   0.98730109   0.18896017    20.586136    22.255678   0.60244399 
  130900   0.98281599   0.18969465    20.600183    22.263733   0.20541723 
  131000   0.98606705   0.19614397    20.601489    22.276364   0.34330277 
  131100   0.99382227    0.2013078    20.591649    22.283317   0.10086389 
  131200   0.98464352   0.20477084    20.607493     22.28886   0.46177516 
  131300   0.98010531   0.20386259    20.615981    22.289634    0.2710457 
  131400    1.0100835   0.19859537    20.588248    22.301589   0.40930544 
  131500    1.0025248   0.19505957    20.607501    22.305972   0.55736617 
  131600   0.99912646    0.1901758    20.606505    22.294996   0.38909998 
  131700    1.0061807    0.1847736    20.597767    22.291434   0.44723441 
  131800   0.99212416   0.18382756    20.615458      22.2871   0.37912318 
  131900    1.0037605   0.18289238    20.596924    22.285081    0.1135935 
  132000    1.0067274   0.18345481    20.585597    22.278765   0.45796332 
Loop time of 0.638497 on 4 procs (4 MPI x 1 OpenMP) for 2000 steps with 4000 atoms

Pair  time (%) = 0.170374 (26.6836)
Bond  time (%) = 0.0627382 (9.82593)
Neigh time (%) = 0.0334069 (5.23212)
Comm  time (%) = 0.150152 (23.5165)
Outpt time (%) = 0.00116104 (0.181839)
Other time (%) = 0.220664 (34.56)

Nlocal:    1000 ave 1066 max 955 min
Histogram: 1 0 1 1 0 0 0 0 0 1
Nghost:    1083.5 ave 1155 max 1053 min
Histogram: 2 1 0 0 0 0 0 0 0 1
Neighs:    3068.5 ave 3446 max 2854 min
Histogram: 1 1 0 1 0 0 0 0 0 1

Total # of neighbors = 12274
Ave neighs/atom = 3.0685
Ave special neighs/atom = 5.925
Neighbor list builds = 41
Dangerous builds = 0
shell          head -n 2 Temp.txt | tail -n 1 >> Tempfile.txt
shell          head -n 2 Bond.txt | tail -n 1 >> Bondfile.txt
next           myTempStr
next           myBondStr
if "${myBond} <= 0" then "jump imdinput.txt nobonds"
jump           imdinput.txt loop2here

# specifies the run length in timesteps
run            2000
WARNING: Use special bonds = 0,1,1 with bond style fene (../bond_fene.cpp:188)
Memory usage per processor = 5.59371 Mbytes
Step Temp E_pair E_mol TotEng Press 
  132000    1.0067274   0.18345481    20.585597    22.278765   0.45796332 
  132100   0.98410998   0.18684415    20.594663    22.257303   0.11507941 
  132200   0.99670715   0.18802678    20.594088    22.276802   0.45922733 
  132300    1.0051794   0.18845404    20.600445    22.296291   0.19947455 
  132400    1.0159478   0.18711782    20.609164    22.319823   0.27843068 
  132500    1.0336816   0.18805151    20.591191    22.329377   0.38305758 
  132600    1.0018083   0.19125074    20.605603    22.299191   0.55467597 
  132700    1.0037132   0.18998094    20.605918    22.301092   0.25400517 
  132800   0.99838219   0.19021274    20.604758     22.29217   0.32956353 
  132900     0.997909   0.19507935     20.59576    22.287328   0.29097282 
  133000    1.0025037   0.19745722    20.601259    22.302096   0.43303515 
  133100   0.99687098   0.19408437    20.599857    22.288874   0.27064817 
  133200   0.99355257   0.19015105    20.600936    22.281043   0.23597902 
  133300   0.99156835   0.18833934    20.601791    22.277111   0.28068339 
  133400    1.0209308   0.19094845    20.593356    22.315318   0.33009811 
  133500    1.0097927   0.19252764    20.593887    22.300725   0.48817957 
  133600   0.98981708   0.19247413    20.616143    22.292972    0.1906316 
  133700    1.0016186   0.18917007    20.595603    22.286825  0.037556521 
  133800    1.0202584   0.18774361    20.576733    22.294481   0.50683687 
  133900   0.98550848   0.19034269    20.611156    22.279392   0.36202991 
  134000   0.99211041   0.19024385    20.595135    22.273173   0.46539159 
Loop time of 0.64054 on 4 procs (4 MPI x 1 OpenMP) for 2000 steps with 4000 atoms

Pair  time (%) = 0.170643 (26.6404)
Bond  time (%) = 0.0631148 (9.85337)
Neigh time (%) = 0.0332676 (5.19368)
Comm  time (%) = 0.151058 (23.5828)
Outpt time (%) = 0.00118071 (0.18433)
Other time (%) = 0.221277 (34.5453)

Nlocal:    1000 ave 1069 max 973 min
Histogram: 2 1 0 0 0 0 0 0 0 1
Nghost:    1092 ave 1141 max 1063 min
Histogram: 1 0 2 0 0 0 0 0 0 1
Neighs:    3079.25 ave 3394 max 2932 min
Histogram: 2 1 0 0 0 0 0 0 0 1

Total # of neighbors = 12317
Ave neighs/atom = 3.07925
Ave special neighs/atom = 5.925
Neighbor list builds = 41
Dangerous builds = 0
shell          head -n 2 Temp.txt | tail -n 1 >> Tempfile.txt
shell          head -n 2 Bond.txt | tail -n 1 >> Bondfile.txt
next           myTempStr
next           myBondStr
if "${myBond} <= 0" then "jump imdinput.txt nobonds"
jump           imdinput.txt loop2here

# specifies the run length in timesteps
run            2000
WARNING: Use special bonds = 0,1,1 with bond style fene (../bond_fene.cpp:188)
Memory usage per processor = 5.59298 Mbytes
Step Temp E_pair E_mol TotEng Press 
  134000   0.99211041   0.19024385    20.595135    22.273173   0.46539159 
  134100   0.98936163   0.18797775    20.600292    22.271941   0.43472516 
  134200   0.99628761   0.18436488    20.589767    22.268189   0.44061549 
  134300    1.0058847   0.18607021     20.57203     22.26655    0.3226515 
  134400    1.0114389   0.18669171     20.57491    22.278381   0.34566247 
  134500    1.0139373   0.18648106    20.594715    22.301722   0.18770388 
  134600    1.0134747    0.1899721    20.596222    22.306026   0.18048427 
  134700    1.0160563   0.19210938    20.601086    22.316899  0.079690614 
  134800    1.0260381   0.19413281    20.589169    22.321974   0.26947581 
  134900    1.0281656   0.19553244    20.591328    22.328724   0.47484192 
  135000    1.0235039   0.19990394    20.590054     22.32483    0.3268442 
  135100    1.0181309   0.20235826    20.583632    22.312805   0.43922934 
  135200    1.0096831   0.20352598      20.6007    22.318372   0.23082696 
  135300    1.0273119   0.20422252    20.575475     22.32028   0.44291244 
  135400     1.010025   0.20049948    20.610404    22.325562   0.34197763 
  135500    1.0074148   0.20102589    20.597821    22.309592   0.29797261 
  135600    1.0145974    0.1987914    20.576029    22.296336   0.52573078 
  135700    1.0038426   0.19623531    20.593441    22.295063   0.15725291 
  135800     1.001218   0.19571521    20.588171    22.285337   0.11413159 
  135900   0.99656917   0.19518942    20.598354    22.288023   0.57049544 
  136000   0.99656916   0.19432004     20.59226     22.28106   0.40061564 
Loop time of 0.640533 on 4 procs (4 MPI x 1 OpenMP) for 2000 steps with 4000 atoms

Pair  time (%) = 0.17013 (26.5608)
Bond  time (%) = 0.0629442 (9.82685)
Neigh time (%) = 0.0339679 (5.30306)
Comm  time (%) = 0.14985 (23.3946)
Outpt time (%) = 0.0012092 (0.18878)
Other time (%) = 0.222431 (34.7259)

Nlocal:    1000 ave 1018 max 986 min
Histogram: 2 0 0 0 0 0 1 0 0 1
Nghost:    1056.5 ave 1082 max 1022 min
Histogram: 1 0 0 0 0 0 2 0 0 1
Neighs:    3096.75 ave 3153 max 3032 min
Histogram: 1 0 0 1 0 0 0 0 1 1

Total # of neighbors = 12387
Ave neighs/atom = 3.09675
Ave special neighs/atom = 5.925
Neighbor list builds = 42
Dangerous builds = 0
shell          head -n 2 Temp.txt | tail -n 1 >> Tempfile.txt
shell          head -n 2 Bond.txt | tail -n 1 >> Bondfile.txt
next           myTempStr
next           myBondStr
if "${myBond} <= 0" then "jump imdinput.txt nobonds"
jump           imdinput.txt loop2here

# specifies the run length in timesteps
run            2000
WARNING: Use special bonds = 0,1,1 with bond style fene (../bond_fene.cpp:188)
Memory usage per processor = 5.58126 Mbytes
Step Temp E_pair E_mol TotEng Press 
  136000   0.99656916   0.19432004     20.59226     22.28106   0.40061564 
  136100   0.99769688   0.19241549    20.581088    22.269675   0.38482726 
  136200   0.98404646   0.19148828    20.591781     22.25897   0.09514543 
  136300   0.99196975   0.19134052    20.587659    22.266582   0.45860211 
  136400   0.98052184   0.19288168    20.593009    22.256306   0.38394949 
  136500     1.006684   0.19066589    20.578271    22.278585   0.36299536 
  136600    1.0043396   0.18973491    20.594436    22.290303   0.20664624 
  136700    1.0190338   0.19362586     20.57314    22.294934   0.55478898 
  136800   0.99855418   0.19967046    20.594055    22.291182   0.31591766 
  136900   0.99551795   0.20076975    20.596287     22.28996   0.41102815 
  137000    1.0040147   0.19905711      20.5807    22.285403   0.27839335 
  137100   0.98890459   0.19843877    20.606054    22.287479    0.1829506 
  137200    1.0001881   0.19314111    20.599398    22.292446   0.40014903 
  137300    1.0119279   0.18822767    20.603765    22.309505   0.32739787 
  137400    1.0145484   0.18745306    20.594436    22.303331   0.23769247 
  137500    1.0104861   0.18993755    20.604756    22.310044   0.44261041 
  137600    1.0069493   0.19462786    20.604567    22.309241    0.4580522 
  137700   0.99904342    0.1962131    20.620907     22.31531   0.32522033 
  137800   0.99663253   0.19513167    20.626652    22.316359   0.32939034 
  137900    1.0046682   0.19367756    20.603438    22.303741   0.33227875 
  138000    1.0070276   0.19213773    20.607337    22.309639   0.32590302 
Loop time of 0.654507 on 4 procs (4 MPI x 1 OpenMP) for 2000 steps with 4000 atoms

Pair  time (%) = 0.171935 (26.2693)
Bond  time (%) = 0.0628998 (9.61025)
Neigh time (%) = 0.035446 (5.41568)
Comm  time (%) = 0.159764 (24.4097)
Outpt time (%) = 0.00121045 (0.184941)
Other time (%) = 0.223253 (34.11)

Nlocal:    1000 ave 1051 max 970 min
Histogram: 1 0 2 0 0 0 0 0 0 1
Nghost:    1062.5 ave 1116 max 1037 min
Histogram: 1 2 0 0 0 0 0 0 0 1
Neighs:    3126.5 ave 3514 max 2907 min
Histogram: 1 1 1 0 0 0 0 0 0 1

Total # of neighbors = 12506
Ave neighs/atom = 3.1265
Ave special neighs/atom = 5.925
Neighbor list builds = 42
Dangerous builds = 0
shell          head -n 2 Temp.txt | tail -n 1 >> Tempfile.txt
shell          head -n 2 Bond.txt | tail -n 1 >> Bondfile.txt
next           myTempStr
next           myBondStr
if "${myBond} <= 0" then "jump imdinput.txt nobonds"
jump           imdinput.txt loop2here

# specifies the run length in timesteps
run            2000
WARNING: Use special bonds = 0,1,1 with bond style fene (../bond_fene.cpp:188)
Memory usage per processor = 5.59078 Mbytes
Step Temp E_pair E_mol TotEng Press 
  138000    1.0070276   0.19213773    20.607337    22.309639   0.32590302 
  138100   0.99512378     0.192719    20.600219     22.28525   0.26889215 
  138200   0.98458536   0.19345906    20.612284    22.282252   0.22001496 
  138300   0.98485088   0.19343078    20.605634    22.275971   0.32119017 
  138400   0.99143214   0.19020094    20.601561    22.278539    0.4295346 
  138500   0.99752671   0.18931782    20.594935    22.280168   0.30817542 
  138600   0.98093579   0.18678053    20.603784      22.2616   0.44816499 
  138700   0.99561127   0.18920534    20.604762    22.287011   0.43926732 
  138800   0.98166866   0.18856075    20.625739    22.286435 -0.019370698 
  138900   0.99702899   0.19397284    20.586233    22.275376   0.52637336 
  139000   0.98900663   0.20106768    20.617516    22.301722   0.12299129 
  139100   0.99564406   0.20283663    20.587204    22.283133   0.33682672 
  139200     1.000485   0.20113904    20.601092    22.302583   0.30131102 
  139300    1.0047905    0.2008182    20.608416    22.316043   0.27312081 
  139400    1.0181968   0.20024678    20.575851    22.303011   0.64671425 
  139500    1.0071787   0.20083352    20.589196     22.30042   0.45455707 
  139600     1.001821   0.20228133    20.595999    22.300636   0.52721271 
  139700    0.9947057   0.20536828    20.607318    22.304372  0.069823603 
  139800     1.010407   0.20707144    20.599303    22.321606   0.64830335 
  139900    1.0196933   0.20572033    20.585125    22.320003   0.14220114 
  140000    1.0204204   0.20086869    20.583728    22.314844   0.40814018 
Loop time of 0.672192 on 4 procs (4 MPI x 1 OpenMP) for 2000 steps with 4000 atoms

Pair  time (%) = 0.176869 (26.3123)
Bond  time (%) = 0.0613387 (9.12519)
Neigh time (%) = 0.0361403 (5.37649)
Comm  time (%) = 0.170572 (25.3755)
Outpt time (%) = 0.00123775 (0.184137)
Other time (%) = 0.226034 (33.6264)

Nlocal:    1000 ave 1065 max 972 min
Histogram: 2 1 0 0 0 0 0 0 0 1
Nghost:    1108.25 ave 1133 max 1083 min
Histogram: 1 0 0 1 0 0 1 0 0 1
Neighs:    3167.25 ave 3598 max 2894 min
Histogram: 1 1 0 1 0 0 0 0 0 1

Total # of neighbors = 12669
Ave neighs/atom = 3.16725
Ave special neighs/atom = 5.925
Neighbor list builds = 41
Dangerous builds = 0
shell          head -n 2 Temp.txt | tail -n 1 >> Tempfile.txt
shell          head -n 2 Bond.txt | tail -n 1 >> Bondfile.txt
next           myTempStr
next           myBondStr
if "${myBond} <= 0" then "jump imdinput.txt nobonds"
jump           imdinput.txt loop2here

# specifies the run length in timesteps
run            2000
WARNING: Use special bonds = 0,1,1 with bond style fene (../bond_fene.cpp:188)
Memory usage per processor = 5.59274 Mbytes
Step Temp E_pair E_mol TotEng Press 
  140000    1.0204204   0.20086869    20.583728    22.314844   0.40814018 
  140100    1.0056337   0.20026746    20.599443    22.307784   0.57021677 
  140200    1.0009352   0.19959606    20.603288    22.303911   0.42266559 
  140300   0.99904218    0.2052136    20.612566    22.315968   0.16575523 
  140400     1.011976   0.20767781    20.582729    22.307992   0.32566518 
  140500    1.0006637   0.20299165    20.591409    22.295021    0.2152289 
  140600    1.0095968   0.19632476    20.595566    22.305907   0.20766582 
  140700     1.021302   0.19060124    20.600126    22.322297   0.26095011 
  140800    1.0282336   0.19234009    20.589057    22.323362    0.3315924 
  140900    1.0130447   0.19197465    20.604456    22.315618   0.15164123 
  141000    1.0073648   0.18589571    20.601564     22.29813   0.55670143 
  141100   0.99584772   0.18547106    20.617818    22.296687   0.37495446 
  141200     1.008848   0.18867366    20.604193     22.30576   0.37448274 
  141300    1.0165019   0.19210655    20.603718    22.320196   0.29930207 
  141400    1.0152288   0.19346424    20.597716    22.313642   0.37454686 
  141500    1.0015823   0.19561327    20.608513    22.306124   0.38449105 
  141600    1.0155676   0.19886813      20.5919    22.313739   0.36694409 
  141700    1.0035333   0.19818824      20.6097    22.312812    0.4143356 
  141800    1.0125071   0.19326587    20.594975    22.306622   0.22867692 
  141900    1.0102038   0.18985957    20.584514    22.289301   0.43610238 
  142000    1.0025367    0.1907301    20.595944    22.290103   0.22271797 
Loop time of 0.674458 on 4 procs (4 MPI x 1 OpenMP) for 2000 steps with 4000 atoms

Pair  time (%) = 0.174641 (25.8935)
Bond  time (%) = 0.0610899 (9.05763)
Neigh time (%) = 0.0370169 (5.4884)
Comm  time (%) = 0.173481 (25.7216)
Outpt time (%) = 0.00127453 (0.188971)
Other time (%) = 0.226954 (33.6499)

Nlocal:    1000 ave 1046 max 945 min
Histogram: 1 0 0 0 1 0 0 1 0 1
Nghost:    1087.25 ave 1116 max 1052 min
Histogram: 1 0 0 0 1 0 0 1 0 1
Neighs:    3102.75 ave 3468 max 2820 min
Histogram: 1 1 0 0 0 1 0 0 0 1

Total # of neighbors = 12411
Ave neighs/atom = 3.10275
Ave special neighs/atom = 5.925
Neighbor list builds = 42
Dangerous builds = 0
shell          head -n 2 Temp.txt | tail -n 1 >> Tempfile.txt
shell          head -n 2 Bond.txt | tail -n 1 >> Bondfile.txt
next           myTempStr
next           myBondStr
if "${myBond} <= 0" then "jump imdinput.txt nobonds"
jump           imdinput.txt loop2here

# specifies the run length in timesteps
run            2000
WARNING: Use special bonds = 0,1,1 with bond style fene (../bond_fene.cpp:188)
Memory usage per processor = 5.58761 Mbytes
Step Temp E_pair E_mol TotEng Press 
  142000    1.0025367    0.1907301    20.595944    22.290103   0.22271797 
  142100    1.0074023   0.19425578    20.583002    22.287983   0.25677183 
  142200     1.008186   0.19298272    20.575497    22.280381   0.37268311 
  142300   0.99629804   0.19293202    20.584861    22.271866   0.33473009 
  142400      1.00018   0.19207399    20.587157    22.279125   0.43661953 
  142500   0.99106567    0.1884232    20.580077    22.254727   0.38842204 
  142600   0.99863767   0.18520152    20.597933    22.280716   0.18281414 
  142700   0.99805981   0.18675204    20.583762    22.267229   0.38719385 
  142800    1.0102553   0.18842761    20.572077    22.275509    0.3311437 
  142900   0.99233614   0.19007491    20.592163     22.27037  0.097140554 
  143000   0.98947867   0.19045532    20.591957    22.266259   0.33872368 
  143100   0.99686089   0.18926198    20.587522    22.271702     0.288826 
  143200   0.99155614   0.19026626    20.597407    22.274635   0.31560388 
  143300    1.0042272   0.18921344    20.591924    22.287101    0.3800567 
  143400   0.99342666   0.19230485    20.617116    22.299189   0.32994952 
  143500     1.013307   0.19400809     20.59661    22.310199   0.49657894 
  143600    1.0175678   0.19324491    20.592293    22.311508   0.19913609 
  143700    1.0225214   0.19361208    20.602873    22.329883   0.44792049 
  143800    1.0176824   0.19216009    20.614368     22.33267   0.21236629 
  143900    1.0113439   0.19385709    20.599993    22.310487   0.26359042 
  144000    1.0210318   0.19449204    20.596427    22.322084   0.48137996 
Loop time of 0.675992 on 4 procs (4 MPI x 1 OpenMP) for 2000 steps with 4000 atoms

Pair  time (%) = 0.175481 (25.959)
Bond  time (%) = 0.0615923 (9.11139)
Neigh time (%) = 0.0361407 (5.34633)
Comm  time (%) = 0.174329 (25.7887)
Outpt time (%) = 0.00123203 (0.182255)
Other time (%) = 0.227217 (33.6123)

Nlocal:    1000 ave 1068 max 949 min
Histogram: 1 0 0 1 1 0 0 0 0 1
Nghost:    1064 ave 1104 max 1042 min
Histogram: 2 0 0 0 1 0 0 0 0 1
Neighs:    3093.25 ave 3459 max 2752 min
Histogram: 1 0 0 0 2 0 0 0 0 1

Total # of neighbors = 12373
Ave neighs/atom = 3.09325
Ave special neighs/atom = 5.925
Neighbor list builds = 41
Dangerous builds = 0
shell          head -n 2 Temp.txt | tail -n 1 >> Tempfile.txt
shell          head -n 2 Bond.txt | tail -n 1 >> Bondfile.txt
next           myTempStr
next           myBondStr
if "${myBond} <= 0" then "jump imdinput.txt nobonds"
jump           imdinput.txt loop2here

# specifies the run length in timesteps
run            2000
WARNING: Use special bonds = 0,1,1 with bond style fene (../bond_fene.cpp:188)
Memory usage per processor = 5.5942 Mbytes
Step Temp E_pair E_mol TotEng Press 
  144000    1.0210318   0.19449204    20.596427    22.322084   0.48137996 
  144100    1.0142014    0.1972214    20.605017     22.32316   0.42538469 
  144200     1.008478   0.19769385     20.60893    22.318963   0.33927967 
  144300    1.0085025   0.19432112    20.591509    22.298206  0.083172657 
  144400    0.9971702   0.19347815    20.607226    22.296086   0.42394859 
  144500    1.0055286   0.19254109    20.598443      22.2989   0.39382001 
  144600    1.0110863   0.19162053    20.578784    22.286655   0.55547108 
  144700   0.99132779   0.19351942    20.592656    22.272795   0.41700812 
  144800   0.97877285   0.19545739    20.601958    22.265208   0.20034002 
  144900    0.9814667   0.19472557    20.589678    22.256236   0.39429307 
  145000    0.9668427   0.19348082    20.595439    22.238821   0.33136529 
  145100   0.95932169   0.19500588    20.595833    22.229462   0.30083312 
  145200   0.97603405   0.19192956    20.578095    22.233709    0.5848104 
  145300   0.97414469    0.1903111    20.587414    22.238577   0.10349347 
  145400   0.97578095   0.18379936    20.586668    22.233773   0.37771878 
  145500     0.979681   0.17932276    20.590884    22.239361   0.18875468 
  145600   0.98920414    0.1782666    20.592277    22.253979   0.39644975 
  145700    1.0031772   0.17915525    20.601344    22.284889   0.10495224 
  145800    1.0226751   0.18388901    20.591878    22.309396    0.4653266 
  145900    1.0163358   0.18918154    20.597239    22.310543     0.483472 
  146000    1.0136124   0.19163233     20.59536    22.307031   0.37649182 
Loop time of 0.674868 on 4 procs (4 MPI x 1 OpenMP) for 2000 steps with 4000 atoms

Pair  time (%) = 0.176031 (26.0838)
Bond  time (%) = 0.0623704 (9.24186)
Neigh time (%) = 0.037424 (5.54538)
Comm  time (%) = 0.170391 (25.2481)
Outpt time (%) = 0.00134456 (0.199233)
Other time (%) = 0.227307 (33.6817)

Nlocal:    1000 ave 1046 max 967 min
Histogram: 1 0 0 2 0 0 0 0 0 1
Nghost:    1065 ave 1091 max 1039 min
Histogram: 1 1 0 0 0 0 0 0 1 1
Neighs:    3047.75 ave 3386 max 2846 min
Histogram: 1 1 0 1 0 0 0 0 0 1

Total # of neighbors = 12191
Ave neighs/atom = 3.04775
Ave special neighs/atom = 5.925
Neighbor list builds = 42
Dangerous builds = 0
shell          head -n 2 Temp.txt | tail -n 1 >> Tempfile.txt
shell          head -n 2 Bond.txt | tail -n 1 >> Bondfile.txt
next           myTempStr
next           myBondStr
if "${myBond} <= 0" then "jump imdinput.txt nobonds"
jump           imdinput.txt loop2here

# specifies the run length in timesteps
run            2000
WARNING: Use special bonds = 0,1,1 with bond style fene (../bond_fene.cpp:188)
Memory usage per processor = 5.5881 Mbytes
Step Temp E_pair E_mol TotEng Press 
  146000    1.0136124   0.19163233     20.59536    22.307031   0.37649182 
  146100    1.0100953   0.19307748    20.599419    22.307261    0.1997616 
  146200    1.0009038   0.19002527    20.610087    22.301093    0.4833122 
  146300    1.0044429   0.18524867    20.599531    22.291067    0.5403572 
  146400   0.99299374   0.17975033     20.61557    22.284438   0.14653857 
  146500    1.0177237   0.17760613     20.57949      22.2833   0.49295378 
  146600   0.99441727   0.17907415    20.598311    22.268638   0.29686734 
  146700   0.99547345   0.18299338    20.596932    22.272762   0.21327011 
  146800   0.99514035    0.1856249    20.598619    22.276582  0.065365162 
  146900    1.0068671   0.18825167    20.590932    22.289107   0.60799679 
  147000     1.003336      0.19125    20.599106    22.294984   0.20703184 
  147100   0.99869264   0.19693593    20.583235    22.277835   0.27938069 
  147200   0.99203681   0.19939681     20.59773     22.28481    0.3531778 
  147300   0.99521791   0.19794784    20.595148    22.285549   0.34588002 
  147400   0.99583363   0.19947588     20.59807    22.290923   0.24854122 
  147500    0.9921086   0.20036732    20.583529    22.271687   0.25138987 
  147600   0.99198041   0.19703909    20.591158    22.275796   0.32369041 
  147700   0.99381324   0.19734986    20.597256    22.284953   0.18679461 
  147800    0.9963474   0.19487609    20.596576      22.2856   0.49698922 
  147900    1.0030281   0.19472116    20.591066    22.289954   0.12753661 
  148000   0.98797179   0.19354828     20.60794    22.283075   0.35571157 
Loop time of 0.66321 on 4 procs (4 MPI x 1 OpenMP) for 2000 steps with 4000 atoms

Pair  time (%) = 0.176974 (26.6845)
Bond  time (%) = 0.063989 (9.64838)
Neigh time (%) = 0.0353212 (5.3258)
Comm  time (%) = 0.160146 (24.147)
Outpt time (%) = 0.00125295 (0.188922)
Other time (%) = 0.225526 (34.0053)

Nlocal:    1000 ave 1029 max 979 min
Histogram: 1 0 0 2 0 0 0 0 0 1
Nghost:    1058.25 ave 1077 max 1044 min
Histogram: 1 0 1 0 1 0 0 0 0 1
Neighs:    3098.5 ave 3330 max 2956 min
Histogram: 1 1 0 1 0 0 0 0 0 1

Total # of neighbors = 12394
Ave neighs/atom = 3.0985
Ave special neighs/atom = 5.925
Neighbor list builds = 41
Dangerous builds = 0
shell          head -n 2 Temp.txt | tail -n 1 >> Tempfile.txt
shell          head -n 2 Bond.txt | tail -n 1 >> Bondfile.txt
next           myTempStr
next           myBondStr
if "${myBond} <= 0" then "jump imdinput.txt nobonds"
jump           imdinput.txt loop2here

# specifies the run length in timesteps
run            2000
WARNING: Use special bonds = 0,1,1 with bond style fene (../bond_fene.cpp:188)
Memory usage per processor = 5.58321 Mbytes
Step Temp E_pair E_mol TotEng Press 
  148000   0.98797179   0.19354828     20.60794    22.283075   0.35571157 
  148100   0.99671644   0.19654948    20.598371    22.289621    0.3216405 
  148200     1.005707   0.19514493    20.585957    22.289285   0.29371527 
  148300   0.98978075   0.19546752    20.604562     22.28433   0.31953931 
  148400   0.98626527   0.19433589    20.601488    22.274852   0.71673723 
  148500   0.98391689   0.19691663    20.605486    22.277909   0.33006569 
  148600   0.99108744   0.20066376    20.602075    22.288998   0.51322032 
  148700   0.99447049   0.20076559     20.60049    22.292589   0.12196966 
  148800    0.9856674   0.19690887    20.610012    22.285052   0.29069604 
  148900   0.99307476   0.19596484    20.596216    22.281421  -0.10643258 
  149000   0.99756941   0.19807787    20.584481    22.278538   0.72194399 
  149100   0.99847916   0.19781881    20.598989    22.294152   0.38792581 
  149200     1.004806   0.19903875    20.593851    22.299722   0.51374876 
  149300    1.0076563   0.19951005    20.595133     22.30575  0.039119802 
  149400    1.0074982   0.19770763     20.59915    22.307727   0.42295297 
  149500    1.0120969   0.19768364    20.593025    22.308475 0.0099108837 
  149600     1.021852   0.20125999    20.586914    22.320569   0.42838242 
  149700    1.0108122   0.20351835    20.584964    22.304321   0.56143187 
  149800   0.99843196   0.20457086    20.590641    22.292485   0.30505662 
  149900    1.0030762   0.19787496    20.597453    22.299566   0.42246128 
  150000    1.0035252    0.1978101     20.60274    22.305462   0.17305897 
Loop time of 0.662012 on 4 procs (4 MPI x 1 OpenMP) for 2000 steps with 4000 atoms

Pair  time (%) = 0.177254 (26.7751)
Bond  time (%) = 0.0641558 (9.69104)
Neigh time (%) = 0.0349213 (5.27503)
Comm  time (%) = 0.158753 (23.9803)
Outpt time (%) = 0.00123578 (0.186671)
Other time (%) = 0.225692 (34.0918)

Nlocal:    1000 ave 1010 max 990 min
Histogram: 2 0 0 0 0 0 0 0 0 2
Nghost:    1070.25 ave 1086 max 1064 min
Histogram: 3 0 0 0 0 0 0 0 0 1
Neighs:    3066.25 ave 3093 max 3029 min
Histogram: 1 0 0 0 0 0 2 0 0 1

Total # of neighbors = 12265
Ave neighs/atom = 3.06625
Ave special neighs/atom = 5.925
Neighbor list builds = 41
Dangerous builds = 0
shell          head -n 2 Temp.txt | tail -n 1 >> Tempfile.txt
shell          head -n 2 Bond.txt | tail -n 1 >> Bondfile.txt
next           myTempStr
next           myBondStr
if "${myBond} <= 0" then "jump imdinput.txt nobonds"
jump           imdinput.txt loop2here

# specifies the run length in timesteps
run            2000
WARNING: Use special bonds = 0,1,1 with bond style fene (../bond_fene.cpp:188)
Memory usage per processor = 5.57955 Mbytes
Step Temp E_pair E_mol TotEng Press 
  150000    1.0035252    0.1978101     20.60274    22.305462   0.17305897 
  150100   0.99821577   0.19535463    20.595378    22.287682   0.18841698 
  150200    1.0025564   0.19013679    20.582808    22.276403   0.44239752 
  150300   0.99518179   0.18470747    20.587741    22.264848   0.21487214 
  150400   0.97360797   0.18117159    20.588773    22.229992   0.33963778 
  150500   0.97025537   0.17898011    20.581245    22.215244   0.47552893 
  150600   0.97966752   0.17823285    20.594632    22.241999   0.20565323 
  150700   0.98885592   0.17725074     20.59649    22.256653   0.40938795 
  150800   0.98051702   0.17787917    20.604142    22.252429   0.14783087 
  150900   0.99107254   0.18042723    20.585145    22.251809   0.33694838 
  151000   0.99123788   0.18266815    20.579468    22.248621    0.4987575 
  151100   0.99006435   0.18328439    20.592412    22.260422   0.32402799 
  151200   0.97868103   0.18367883    20.589898    22.241231   0.33282007 
  151300   0.98575112   0.18372167     20.58418    22.246159   0.49991492 
  151400   0.98896611   0.18151373     20.58915    22.253742   0.16663645 
  151500   0.99865737   0.17925912    20.577712    22.254582   0.21912873 
  151600   0.97951445   0.18169269     20.58682    22.237417   0.07642783 
  151700   0.97245962   0.18617916    20.600337    22.244841   0.44670218 
  151800   0.99446322   0.19036404    20.587813    22.269499   0.42837254 
  151900   0.97112647   0.19386162    20.607567    22.257754   0.50992487 
  152000   0.98831233    0.1922469     20.58951    22.263854   0.18430722 
Loop time of 0.650369 on 4 procs (4 MPI x 1 OpenMP) for 2000 steps with 4000 atoms

Pair  time (%) = 0.170033 (26.1441)
Bond  time (%) = 0.063282 (9.73017)
Neigh time (%) = 0.0340479 (5.23517)
Comm  time (%) = 0.154371 (23.7359)
Outpt time (%) = 0.00129575 (0.199232)
Other time (%) = 0.22734 (34.9555)

Nlocal:    1000 ave 1036 max 961 min
Histogram: 1 0 0 1 0 0 0 1 0 1
Nghost:    1067.75 ave 1080 max 1048 min
Histogram: 1 0 0 0 0 1 0 0 1 1
Neighs:    3081.75 ave 3438 max 2821 min
Histogram: 1 1 0 0 0 1 0 0 0 1

Total # of neighbors = 12327
Ave neighs/atom = 3.08175
Ave special neighs/atom = 5.925
Neighbor list builds = 41
Dangerous builds = 0
shell          head -n 2 Temp.txt | tail -n 1 >> Tempfile.txt
shell          head -n 2 Bond.txt | tail -n 1 >> Bondfile.txt
next           myTempStr
next           myBondStr
if "${myBond} <= 0" then "jump imdinput.txt nobonds"
jump           imdinput.txt loop2here

# specifies the run length in timesteps
run            2000
WARNING: Use special bonds = 0,1,1 with bond style fene (../bond_fene.cpp:188)
Memory usage per processor = 5.58688 Mbytes
Step Temp E_pair E_mol TotEng Press 
  152000   0.98831233    0.1922469     20.58951    22.263854   0.18430722 
  152100    1.0029228   0.18939261    20.584508    22.277909   0.38554002 
  152200   0.99878766   0.19195344    20.569924    22.259685   0.47436886 
  152300   0.98792225   0.19379924    20.596824    22.272136   0.20120485 
  152400   0.99436382   0.19066027    20.588498    22.270331   0.28067063 
  152500   0.99174193   0.18687119    20.576977     22.25109   0.40913272 
  152600   0.99594993   0.18107081     20.56963    22.244252   0.37678355 
  152700   0.99097128   0.18068451    20.582348    22.249118   0.34430345 
  152800   0.98687435   0.18097077    20.594805    22.255717   0.27522364 
  152900   0.98575297   0.18130746    20.592512     22.25208   0.41559203 
  153000   0.97204013   0.17757489    20.592848    22.228118   0.17675183 
  153100   0.97843094   0.17628127    20.590543    22.234104   0.37093176 
  153200   0.98918155   0.17898038    20.567216    22.229597   0.15067274 
  153300    0.9676336   0.18089628    20.596013    22.227997   0.38022515 
  153400   0.98789952   0.18016626     20.58626    22.247905   0.52941185 
  153500   0.98320454   0.18009694    20.592468    22.247003   0.22121222 
  153600   0.99967089   0.17762827    20.584754    22.261514   0.44077289 
  153700    1.0023344   0.18001816    20.585414    22.268558   0.60525445 
  153800   0.98780329   0.18404524    20.598493    22.263873   0.54158748 
  153900   0.98537036    0.1871125    20.607302    22.272101   0.13292687 
  154000    0.9858995   0.18683365    20.602435    22.267749   0.15072667 
Loop time of 0.649423 on 4 procs (4 MPI x 1 OpenMP) for 2000 steps with 4000 atoms

Pair  time (%) = 0.174761 (26.9102)
Bond  time (%) = 0.0651182 (10.0271)
Neigh time (%) = 0.0347628 (5.35287)
Comm  time (%) = 0.149297 (22.9891)
Outpt time (%) = 0.00130188 (0.200468)
Other time (%) = 0.224182 (34.5202)

Nlocal:    1000 ave 1014 max 975 min
Histogram: 1 0 0 0 0 1 0 0 0 2
Nghost:    1087 ave 1131 max 1051 min
Histogram: 1 1 0 0 0 0 1 0 0 1
Neighs:    3038.5 ave 3099 max 2873 min
Histogram: 1 0 0 0 0 0 0 0 0 3

Total # of neighbors = 12154
Ave neighs/atom = 3.0385
Ave special neighs/atom = 5.925
Neighbor list builds = 42
Dangerous builds = 0
shell          head -n 2 Temp.txt | tail -n 1 >> Tempfile.txt
shell          head -n 2 Bond.txt | tail -n 1 >> Bondfile.txt
next           myTempStr
next           myBondStr
if "${myBond} <= 0" then "jump imdinput.txt nobonds"
jump           imdinput.txt loop2here

# specifies the run length in timesteps
run            2000
WARNING: Use special bonds = 0,1,1 with bond style fene (../bond_fene.cpp:188)
Memory usage per processor = 5.58077 Mbytes
Step Temp E_pair E_mol TotEng Press 
  154000    0.9858995   0.18683365    20.602435    22.267749   0.15072667 
  154100   0.98701302   0.19016998    20.595292    22.265611   0.18425066 
  154200   0.98943754    0.1925542    20.600399    22.276738   0.49650136 
  154300   0.99114922   0.19134604    20.588207    22.265905   0.51771111 
  154400   0.98800373    0.1904162    20.593439     22.26549   0.59252269 
  154500   0.99651119   0.19055599    20.579911     22.26486   0.15663584 
  154600   0.98950637   0.18875104    20.589809    22.262449   0.40581928 
  154700   0.98411851   0.18791161    20.585369    22.249089   0.37348577 
  154800   0.97230832   0.19088751    20.588337    22.237322   0.29184336 
  154900   0.97342544   0.19255671    20.607993    22.260322  0.093540249 
  155000   0.99020316   0.18977857    20.599006    22.273718   0.37870311 
  155100    0.9940182   0.18787582    20.605513    22.284044   0.49041295 
  155200     1.008931    0.1894325    20.586257    22.288707   0.46469712 
  155300   0.98210509   0.19051103    20.620371    22.283671   0.33331441 
  155400    1.0098924   0.18969361    20.605065    22.309218   0.50174237 
  155500    1.0042901   0.18973559    20.600724    22.296518   0.32816631 
  155600    1.0091496   0.19748885     20.58832    22.299154   0.29392852 
  155700   0.99546111   0.19877153    20.585499    22.277089   0.43231585 
  155800    0.9953766   0.19626038    20.600729    22.289681   0.10727603 
  155900   0.98788325    0.1946425     20.59859    22.274687   0.26672563 
  156000   0.98727214   0.19622337    20.600969    22.277731   0.25856832 
Loop time of 0.65458 on 4 procs (4 MPI x 1 OpenMP) for 2000 steps with 4000 atoms

Pair  time (%) = 0.175369 (26.7912)
Bond  time (%) = 0.0636601 (9.72535)
Neigh time (%) = 0.0353902 (5.40655)
Comm  time (%) = 0.155865 (23.8115)
Outpt time (%) = 0.00131094 (0.200273)
Other time (%) = 0.222984 (34.0652)

Nlocal:    1000 ave 1020 max 965 min
Histogram: 1 0 0 0 0 0 0 1 1 1
Nghost:    1085.75 ave 1138 max 1058 min
Histogram: 1 1 1 0 0 0 0 0 0 1
Neighs:    3099.5 ave 3282 max 2898 min
Histogram: 1 0 0 0 1 0 1 0 0 1

Total # of neighbors = 12398
Ave neighs/atom = 3.0995
Ave special neighs/atom = 5.925
Neighbor list builds = 42
Dangerous builds = 0
shell          head -n 2 Temp.txt | tail -n 1 >> Tempfile.txt
shell          head -n 2 Bond.txt | tail -n 1 >> Bondfile.txt
next           myTempStr
next           myBondStr
if "${myBond} <= 0" then "jump imdinput.txt nobonds"
jump           imdinput.txt loop2here

# specifies the run length in timesteps
run            2000
WARNING: Use special bonds = 0,1,1 with bond style fene (../bond_fene.cpp:188)
Memory usage per processor = 5.58199 Mbytes
Step Temp E_pair E_mol TotEng Press 
  156000   0.98727214   0.19622337    20.600969    22.277731   0.25856832 
  156100   0.98119176   0.19869227    20.613135    22.283247   0.51870979 
  156200   0.99072534   0.19742008     20.59116    22.274297   0.65736091 
  156300   0.98306082   0.19615755    20.585675    22.256055   0.22490246 
  156400   0.97606634   0.19746752    20.587106    22.248307   0.37567238 
  156500   0.98031709   0.19959347    20.599721    22.269423    0.3251682 
  156600   0.99768763   0.19785038    20.582563    22.276571   0.26854406 
  156700   0.99249205    0.1954019    20.584854    22.268622   0.35925175 
  156800   0.98152072    0.1910969    20.587438    22.250448   0.27306426 
  156900   0.97824354   0.18953569    20.594952    22.251486   0.18565614 
  157000   0.99136946   0.18895639    20.574622    22.250261   0.32926794 
  157100   0.99177934   0.18722522    20.574719    22.249241   0.28913003 
  157200   0.99693892   0.18909628    20.574056    22.258187   0.54014395 
  157300    1.0012449   0.19483506    20.584133     22.28046   0.24159428 
  157400    1.0039209   0.19649833    20.588335    22.290338   0.47535971 
  157500   0.99812436   0.19894123    20.595417     22.29117   0.35751271 
  157600   0.98762994   0.20173092    20.595242    22.278048   0.28173717 
  157700   0.98510957   0.20135553    20.591364    22.270015   0.22598745 
  157800    0.9913667   0.19869388    20.585463    22.270835   0.52108821 
  157900    0.9889574   0.19582174     20.60149    22.280377   0.19689257 
  158000   0.98413202   0.19227902    20.603764    22.271872   0.17777953 
Loop time of 0.483897 on 4 procs (4 MPI x 1 OpenMP) for 2000 steps with 4000 atoms

Pair  time (%) = 0.140143 (28.9614)
Bond  time (%) = 0.0461088 (9.52865)
Neigh time (%) = 0.0267965 (5.53765)
Comm  time (%) = 0.102243 (21.129)
Outpt time (%) = 0.000992835 (0.205175)
Other time (%) = 0.167613 (34.6381)

Nlocal:    1000 ave 1034 max 948 min
Histogram: 1 0 0 0 0 1 0 0 0 2
Nghost:    1084 ave 1121 max 1065 min
Histogram: 2 0 1 0 0 0 0 0 0 1
Neighs:    3063 ave 3228 max 2756 min
Histogram: 1 0 0 0 0 0 0 1 0 2

Total # of neighbors = 12252
Ave neighs/atom = 3.063
Ave special neighs/atom = 5.925
Neighbor list builds = 40
Dangerous builds = 0
shell          head -n 2 Temp.txt | tail -n 1 >> Tempfile.txt
shell          head -n 2 Bond.txt | tail -n 1 >> Bondfile.txt
next           myTempStr
next           myBondStr
if "${myBond} <= 0" then "jump imdinput.txt nobonds"
jump           imdinput.txt loop2here

# specifies the run length in timesteps
run            2000
WARNING: Use special bonds = 0,1,1 with bond style fene (../bond_fene.cpp:188)
Memory usage per processor = 5.58492 Mbytes
Step Temp E_pair E_mol TotEng Press 
  158000   0.98413202   0.19227902    20.603764    22.271872   0.17777953 
  158100   0.99301119   0.19169079    20.591618    22.272454   0.60186422 
  158200   0.99183552   0.18937346    20.601271    22.278026   0.27220599 
  158300   0.99429484   0.18785435     20.59026    22.269184    0.5264023 
  158400   0.98237779   0.18529585    20.614228    22.272722   0.17317471 
  158500   0.98995666   0.18370492    20.607626    22.275894   0.59802099 
  158600    1.0008028   0.18537981    20.590667    22.276876   0.35168284 
  158700   0.98507489   0.18873214    20.611414    22.277389   0.30937551 
  158800   0.98661079   0.19133918    20.605129    22.276015 0.0042623324 
  158900   0.99565376    0.1915041    20.591403    22.276015   0.52224506 
  159000   0.99564534   0.19435562    20.605015    22.292465   0.37497162 
  159100   0.98345857   0.19980446    20.608835    22.283459   0.11280776 
  159200   0.99334725   0.20279999    20.594639    22.287087   0.69252703 
  159300   0.98945312   0.19729645    20.611197    22.292303   0.31347358 
  159400    1.0134681   0.19137613    20.619045    22.330243   0.34376611 
  159500    1.0228614   0.18534783     20.62015    22.339406   0.33995154 
  159600    1.0140073   0.18172356    20.608233    22.310587    0.2935819 
  159700    1.0186349   0.18112766    20.609701    22.318399   0.49373395 
  159800    1.0158793   0.18591966    20.607165    22.316522   0.17426009 
  159900    1.0120781   0.19055595    20.606236     22.31453    0.3605137 
  160000    1.0073857   0.19533918    20.597351    22.303391   0.46281869 
Loop time of 0.482486 on 4 procs (4 MPI x 1 OpenMP) for 2000 steps with 4000 atoms

Pair  time (%) = 0.1385 (28.7055)
Bond  time (%) = 0.0462533 (9.58646)
Neigh time (%) = 0.0269518 (5.58604)
Comm  time (%) = 0.10105 (20.9435)
Outpt time (%) = 0.000971675 (0.201389)
Other time (%) = 0.168759 (34.9771)

Nlocal:    1000 ave 1027 max 983 min
Histogram: 1 0 2 0 0 0 0 0 0 1
Nghost:    1083.25 ave 1145 max 1040 min
Histogram: 1 0 1 0 1 0 0 0 0 1
Neighs:    3053.5 ave 3256 max 2908 min
Histogram: 1 1 0 0 1 0 0 0 0 1

Total # of neighbors = 12214
Ave neighs/atom = 3.0535
Ave special neighs/atom = 5.925
Neighbor list builds = 41
Dangerous builds = 0
shell          head -n 2 Temp.txt | tail -n 1 >> Tempfile.txt
shell          head -n 2 Bond.txt | tail -n 1 >> Bondfile.txt
next           myTempStr
next           myBondStr
if "${myBond} <= 0" then "jump imdinput.txt nobonds"
jump           imdinput.txt loop2here

# specifies the run length in timesteps
run            2000
WARNING: Use special bonds = 0,1,1 with bond style fene (../bond_fene.cpp:188)
Memory usage per processor = 5.58419 Mbytes
Step Temp E_pair E_mol TotEng Press 
  160000    1.0073857   0.19533918    20.597351    22.303391   0.46281869 
  160100    1.0032265   0.19709766    20.607108    22.308669   0.28451503 
  160200    1.0118379   0.19994269    20.601928    22.319248   0.10393121 
  160300    1.0090422    0.2009637    20.608242    22.322391   0.33072513 
  160400    1.0166082   0.20467897    20.599167    22.328377   0.39384808 
  160500    1.0088668   0.20393696     20.61081    22.327669   0.29572411 
  160600    1.0213647   0.20347591    20.596072    22.331212    0.4806434 
  160700    1.0155504   0.20522318    20.608055    22.336223   0.31497924 
  160800    1.0224426   0.20049384    20.596953    22.330728   0.41817467 
  160900    1.0162176   0.19172357    20.600606    22.316275   0.21490327 
  161000    1.0228507   0.18786756    20.588876    22.310636   0.58922383 
  161100   0.99992816   0.18919556    20.611674    22.300387   0.25825556 
  161200    1.0094972   0.18988063    20.598138    22.301886   0.27096295 
  161300    1.0051001   0.19534257    20.598134    22.300749   0.19152297 
  161400    1.0067751   0.19553188    20.591459    22.296776   0.51243036 
  161500    1.0159976   0.19244216    20.593452    22.309509   0.27442286 
  161600     1.012056   0.19089915    20.592494    22.301098   0.50131614 
  161700    1.0024329   0.19213402    20.601554    22.296961   0.25640952 
  161800    1.0161221    0.1910097    20.586371    22.301183   0.47273549 
  161900    1.0107093   0.18644353    20.593945    22.296073   0.26617699 
  162000       1.0083   0.18650379    20.593015    22.291591   0.45794507 
Loop time of 0.48137 on 4 procs (4 MPI x 1 OpenMP) for 2000 steps with 4000 atoms

Pair  time (%) = 0.140605 (29.2094)
Bond  time (%) = 0.0461996 (9.59752)
Neigh time (%) = 0.0274037 (5.69285)
Comm  time (%) = 0.0992343 (20.615)
Outpt time (%) = 0.000972748 (0.202079)
Other time (%) = 0.166954 (34.6832)

Nlocal:    1000 ave 1025 max 975 min
Histogram: 1 0 1 0 0 0 0 1 0 1
Nghost:    1046.5 ave 1069 max 999 min
Histogram: 1 0 0 0 0 0 0 0 2 1
Neighs:    3086.5 ave 3320 max 2927 min
Histogram: 2 0 0 0 0 1 0 0 0 1

Total # of neighbors = 12346
Ave neighs/atom = 3.0865
Ave special neighs/atom = 5.925
Neighbor list builds = 42
Dangerous builds = 0
shell          head -n 2 Temp.txt | tail -n 1 >> Tempfile.txt
shell          head -n 2 Bond.txt | tail -n 1 >> Bondfile.txt
next           myTempStr
next           myBondStr
if "${myBond} <= 0" then "jump imdinput.txt nobonds"
jump           imdinput.txt loop2here

# specifies the run length in timesteps
run            2000
WARNING: Use special bonds = 0,1,1 with bond style fene (../bond_fene.cpp:188)
Memory usage per processor = 5.58346 Mbytes
Step Temp E_pair E_mol TotEng Press 
  162000       1.0083   0.18650379    20.593015    22.291591   0.45794507 
  162100    1.0177598   0.18715471    20.586069    22.299482   0.40461258 
  162200   0.98467195   0.18840193    20.603805    22.268846   0.17790049 
  162300   0.99192611   0.18775496    20.582617    22.257889   0.21034671 
  162400   0.99303648   0.18500017    20.583199    22.257381   0.34759227 
  162500   0.98986187    0.1850826    20.596221    22.265725   0.43734981 
  162600    1.0050805   0.18750688    20.587319     22.28207   0.41551519 
  162700   0.98929545   0.18864188    20.608229    22.280443   0.43905708 
  162800    1.0056086   0.19104884     20.59171    22.290795   0.16146615 
  162900    1.0109132   0.19251567    20.579952    22.288458   0.44950222 
  163000   0.98250931    0.1954355     20.58862    22.257451   0.31755487 
  163100   0.97748275    0.1953531    20.594269    22.255479   0.66617778 
  163200   0.99781755   0.19563018     20.57847    22.270453   0.30049818 
  163300   0.97629608    0.1946175    20.601014    22.259709   0.33246774 
  163400   0.98318276    0.1923873    20.597269    22.264062   0.25700139 
  163500   0.98713816   0.19260871    20.595421    22.268367     0.275721 
  163600    1.0012553   0.19150202    20.572025    22.265035    0.4470918 
  163700   0.99995976   0.19260481     20.58777     22.27994   0.16026491 
  163800   0.99775019   0.19189205    20.586801    22.274944    0.2752993 
  163900   0.99022973   0.19601089    20.586591    22.267575    0.3279722 
  164000   0.99147196   0.19825278    20.609243    22.294332   0.39319431 
Loop time of 0.478279 on 4 procs (4 MPI x 1 OpenMP) for 2000 steps with 4000 atoms

Pair  time (%) = 0.139245 (29.1138)
Bond  time (%) = 0.0460852 (9.63564)
Neigh time (%) = 0.0271532 (5.67727)
Comm  time (%) = 0.0985325 (20.6015)
Outpt time (%) = 0.000971973 (0.203223)
Other time (%) = 0.166291 (34.7686)

Nlocal:    1000 ave 1032 max 972 min
Histogram: 1 1 0 0 0 0 0 1 0 1
Nghost:    1039.5 ave 1054 max 1028 min
Histogram: 1 0 0 2 0 0 0 0 0 1
Neighs:    3110.25 ave 3376 max 2900 min
Histogram: 2 0 0 0 0 0 0 1 0 1

Total # of neighbors = 12441
Ave neighs/atom = 3.11025
Ave special neighs/atom = 5.925
Neighbor list builds = 41
Dangerous builds = 0
shell          head -n 2 Temp.txt | tail -n 1 >> Tempfile.txt
shell          head -n 2 Bond.txt | tail -n 1 >> Bondfile.txt
next           myTempStr
next           myBondStr
if "${myBond} <= 0" then "jump imdinput.txt nobonds"
jump           imdinput.txt loop2here

# specifies the run length in timesteps
run            2000
WARNING: Use special bonds = 0,1,1 with bond style fene (../bond_fene.cpp:188)
Memory usage per processor = 5.58419 Mbytes
Step Temp E_pair E_mol TotEng Press 
  164000   0.99147196   0.19825278    20.609243    22.294332   0.39319431 
  164100   0.99700113   0.20091545    20.597136    22.293179   0.52975674 
  164200   0.99113468   0.20230671    20.596071    22.284708   0.31469356 
  164300   0.99446373   0.20297299    20.597969    22.292265   0.51419854 
  164400    1.0041825   0.20281637    20.584291    22.293004   0.25992689 
  164500   0.98495706    0.2027317      20.5945    22.274298   0.12066812 
  164600   0.97710197   0.20132928    20.597325     22.26394   0.40687027 
  164700   0.99369396   0.19985074    20.594528    22.284547   0.35396994 
  164800   0.98458729   0.20222553    20.605939    22.284676   0.31219555 
  164900   0.98221811   0.20611812    20.597317    22.276394   0.58121558 
  165000    1.0023128   0.20514261    20.581635     22.28987   0.34295755 
  165100   0.99146624   0.20357537    20.592905    22.283308   0.43771089 
  165200    1.0042383   0.20072953    20.590352    22.297062   0.26002181 
  165300    1.0023196   0.20036253    20.599312    22.302778   0.42736797 
  165400   0.99188667   0.20250305    20.607919     22.29788   0.29162468 
  165500    1.0041858    0.2020942    20.598071    22.306067   0.31501312 
  165600    1.0098605   0.19753409    20.604701    22.316647    0.2521592 
  165700    1.0188804   0.19149035    20.607226    22.326655   0.42054276 
  165800    1.0341285   0.18730873    20.588961    22.327074    0.2393194 
  165900    1.0122922   0.18944879     20.60527    22.312777   0.35810079 
  166000    1.0059224   0.19210556    20.619355    22.319967   0.16231704 
Loop time of 0.484598 on 4 procs (4 MPI x 1 OpenMP) for 2000 steps with 4000 atoms

Pair  time (%) = 0.142709 (29.4488)
Bond  time (%) = 0.0462953 (9.55334)
Neigh time (%) = 0.0271931 (5.61147)
Comm  time (%) = 0.0998554 (20.6058)
Outpt time (%) = 0.00101328 (0.209097)
Other time (%) = 0.167533 (34.5714)

Nlocal:    1000 ave 1010 max 987 min
Histogram: 1 0 0 0 0 0 2 0 0 1
Nghost:    1071 ave 1093 max 1051 min
Histogram: 1 0 0 1 0 1 0 0 0 1
Neighs:    3114.25 ave 3207 max 2982 min
Histogram: 1 0 0 0 0 1 0 1 0 1

Total # of neighbors = 12457
Ave neighs/atom = 3.11425
Ave special neighs/atom = 5.925
Neighbor list builds = 42
Dangerous builds = 0
shell          head -n 2 Temp.txt | tail -n 1 >> Tempfile.txt
shell          head -n 2 Bond.txt | tail -n 1 >> Bondfile.txt
next           myTempStr
next           myBondStr
if "${myBond} <= 0" then "jump imdinput.txt nobonds"
jump           imdinput.txt loop2here

# specifies the run length in timesteps
run            2000
WARNING: Use special bonds = 0,1,1 with bond style fene (../bond_fene.cpp:188)
Memory usage per processor = 5.57931 Mbytes
Step Temp E_pair E_mol TotEng Press 
  166000    1.0059224   0.19210556    20.619355    22.319967   0.16231704 
  166100    1.0144083   0.19440653    20.600735    22.316374   0.43899531 
  166200    1.0050848   0.19854445    20.611406    22.317201   0.53530133 
  166300    1.0087447   0.20114241     20.60455    22.318431   0.10461376 
  166400     1.013818   0.20071254     20.59908    22.320139   0.41628003 
  166500   0.98380948   0.20108288    20.617581    22.294009    0.1548679 
  166600    1.0010051   0.19775193    20.603113    22.301997    0.4437474 
  166700   0.99891747   0.19262574    20.601772      22.2924   0.40490423 
  166800    1.0115443   0.18804933    20.590818    22.295805   0.36062352 
  166900    1.0035692   0.18895688    20.612184    22.306118   0.20307792 
  167000   0.99965432   0.19078167    20.620713    22.310601   0.31984877 
  167100    1.0140998   0.19295882    20.605393    22.319121   0.40411444 
  167200    1.0071252   0.19457256    20.611481    22.316364    0.2746724 
  167300    1.0101425   0.19384782    20.608469    22.317152   0.52487134 
  167400    1.0246096   0.19221667    20.611448    22.340195   0.34811821 
  167500    1.0172681   0.19248007    20.616045    22.334046   0.30358722 
  167600    1.0099234   0.19563139    20.617432     22.32757   0.43157591 
  167700    1.0107333   0.19708756    20.602663    22.315471   0.26017254 
  167800    1.0097558    0.1977421    20.609134    22.321131   0.38463186 
  167900    1.0205852   0.19530532    20.592882    22.318683   0.29730617 
  168000    1.0123204   0.19291349    20.604026     22.31504   0.33744901 
Loop time of 0.482502 on 4 procs (4 MPI x 1 OpenMP) for 2000 steps with 4000 atoms

Pair  time (%) = 0.140961 (29.2147)
Bond  time (%) = 0.0463444 (9.60502)
Neigh time (%) = 0.0281263 (5.82926)
Comm  time (%) = 0.0995414 (20.6303)
Outpt time (%) = 0.000945508 (0.19596)
Other time (%) = 0.166583 (34.5249)

Nlocal:    1000 ave 1011 max 970 min
Histogram: 1 0 0 0 0 0 0 0 0 3
Nghost:    1082.25 ave 1115 max 1050 min
Histogram: 1 0 0 1 0 0 1 0 0 1
Neighs:    3120.25 ave 3192 max 3020 min
Histogram: 1 0 0 0 1 0 0 0 0 2

Total # of neighbors = 12481
Ave neighs/atom = 3.12025
Ave special neighs/atom = 5.925
Neighbor list builds = 43
Dangerous builds = 0
shell          head -n 2 Temp.txt | tail -n 1 >> Tempfile.txt
shell          head -n 2 Bond.txt | tail -n 1 >> Bondfile.txt
next           myTempStr
next           myBondStr
if "${myBond} <= 0" then "jump imdinput.txt nobonds"
jump           imdinput.txt loop2here

# specifies the run length in timesteps
run            2000
WARNING: Use special bonds = 0,1,1 with bond style fene (../bond_fene.cpp:188)
Memory usage per processor = 5.5798 Mbytes
Step Temp E_pair E_mol TotEng Press 
  168000    1.0123204   0.19291349    20.604026     22.31504   0.33744901 
  168100       1.0101    0.1924425    20.605351    22.312565   0.29627236 
  168200    1.0055693   0.19197296    20.598941    22.298891   0.33703578 
  168300    1.0030995   0.19235679    20.605584    22.302214    0.3769211 
  168400    1.0088038   0.19408487    20.591571    22.298483   0.34032686 
  168500    1.0158809   0.19159944    20.575926    22.290966    0.5160738 
  168600   0.98976863   0.19126407    20.610229    22.285775   0.16088346 
  168700    1.0057292   0.18945701    20.599852    22.297525   0.26104264 
  168800    1.0028139   0.18645963    20.606519    22.296823   0.39881261 
  168900    1.0075126   0.18882033    20.591088    22.290799   0.35939091 
  169000   0.99799071   0.18956791     20.58477     22.27095    0.3331329 
  169100   0.98002662    0.1919698    20.606076    22.267718   0.53873951 
  169200   0.98813783   0.19637579    20.604472    22.282684   0.37523293 
  169300   0.97779961   0.19571998    20.609238     22.27129   0.19445847 
  169400   0.98740398   0.19462634     20.59598    22.271342   0.51371471 
  169500   0.98414622   0.19488319    20.591431    22.262165   0.41204363 
  169600   0.98689328   0.19475664    20.590516    22.265243   0.18757229 
  169700   0.98148195   0.19176398    20.595372     22.25899   0.55218654 
  169800   0.99456627    0.1940943    20.595771    22.281342   0.25191351 
  169900   0.99115156   0.19570573    20.603879     22.28594   0.40876215 
  170000   0.98349023    0.1937714     20.60315    22.271788   0.26903449 
Loop time of 0.480083 on 4 procs (4 MPI x 1 OpenMP) for 2000 steps with 4000 atoms

Pair  time (%) = 0.1406 (29.2866)
Bond  time (%) = 0.0462604 (9.63592)
Neigh time (%) = 0.0270492 (5.63428)
Comm  time (%) = 0.0986764 (20.554)
Outpt time (%) = 0.00098443 (0.205054)
Other time (%) = 0.166512 (34.6841)

Nlocal:    1000 ave 1017 max 981 min
Histogram: 1 0 0 0 0 2 0 0 0 1
Nghost:    1087.5 ave 1106 max 1067 min
Histogram: 1 0 0 1 0 0 0 1 0 1
Neighs:    3060.75 ave 3102 max 3025 min
Histogram: 1 0 1 0 0 1 0 0 0 1

Total # of neighbors = 12243
Ave neighs/atom = 3.06075
Ave special neighs/atom = 5.925
Neighbor list builds = 42
Dangerous builds = 0
shell          head -n 2 Temp.txt | tail -n 1 >> Tempfile.txt
shell          head -n 2 Bond.txt | tail -n 1 >> Bondfile.txt
next           myTempStr
next           myBondStr
if "${myBond} <= 0" then "jump imdinput.txt nobonds"
jump           imdinput.txt loop2here

# specifies the run length in timesteps
run            2000
WARNING: Use special bonds = 0,1,1 with bond style fene (../bond_fene.cpp:188)
Memory usage per processor = 5.58102 Mbytes
Step Temp E_pair E_mol TotEng Press 
  170000   0.98349023    0.1937714     20.60315    22.271788   0.26903449 
  170100   0.99387044   0.19276762    20.594332    22.277532   0.54226938 
  170200   0.99302745   0.19611037     20.60138    22.286659   0.11921214 
  170300   0.99008917   0.19916478    20.584407    22.268334   0.42875489 
  170400   0.97441498   0.19680256    20.600631    22.258691   0.58187781 
  170500     0.978573   0.19527013    20.587177    22.249939   0.32453636 
  170600    0.9882734   0.19548086    20.591776    22.269297   0.34322872 
  170700    0.9892643   0.19597746    20.609618    22.289121   0.19102647 
  170800    1.0018837    0.1937763    20.598308    22.294535   0.28111643 
  170900   0.99377104   0.19114261    20.606692    22.288119   0.53715255 
  171000   0.99598431   0.19406215    20.595719    22.283384   0.27116695 
  171100   0.99158905   0.19281823    20.602751    22.282581   0.18303081 
  171200    1.0011422   0.18919734     20.60459    22.295125   0.32629802 
  171300     1.010412   0.18730017    20.582215    22.284755   0.49734971 
  171400   0.99585522   0.19052663    20.606733    22.290669   0.36114962 
  171500    1.0088294   0.19071899    20.589062    22.292647   0.25356315 
  171600    1.0166561   0.18830348    20.577613    22.290519   0.43000643 
  171700    1.0066697    0.1899785    20.593173    22.292778   0.52851803 
  171800    1.0003831    0.1907335    20.591259    22.282192   0.24198231 
  171900   0.99701613   0.19227369    20.590993    22.278417  0.099199305 
  172000   0.99680527   0.19162221    20.602495    22.288951   0.52787069 
Loop time of 0.480082 on 4 procs (4 MPI x 1 OpenMP) for 2000 steps with 4000 atoms

Pair  time (%) = 0.140762 (29.3205)
Bond  time (%) = 0.0462196 (9.62743)
Neigh time (%) = 0.0277617 (5.7827)
Comm  time (%) = 0.0984342 (20.5036)
Outpt time (%) = 0.000944912 (0.196823)
Other time (%) = 0.16596 (34.569)

Nlocal:    1000 ave 1042 max 967 min
Histogram: 1 1 0 0 0 0 1 0 0 1
Nghost:    1120.5 ave 1190 max 1035 min
Histogram: 1 0 0 0 1 0 0 1 0 1
Neighs:    3115.75 ave 3313 max 2898 min
Histogram: 1 0 0 0 1 0 1 0 0 1

Total # of neighbors = 12463
Ave neighs/atom = 3.11575
Ave special neighs/atom = 5.925
Neighbor list builds = 42
Dangerous builds = 0
shell          head -n 2 Temp.txt | tail -n 1 >> Tempfile.txt
shell          head -n 2 Bond.txt | tail -n 1 >> Bondfile.txt
next           myTempStr
next           myBondStr
if "${myBond} <= 0" then "jump imdinput.txt nobonds"
jump           imdinput.txt loop2here

# specifies the run length in timesteps
run            2000
WARNING: Use special bonds = 0,1,1 with bond style fene (../bond_fene.cpp:188)
Memory usage per processor = 5.58761 Mbytes
Step Temp E_pair E_mol TotEng Press 
  172000   0.99680527   0.19162221    20.602495    22.288951   0.52787069 
  172100    0.9960608   0.19068785    20.608502    22.292908   0.42326126 
  172200   0.99784497   0.19345228    20.597835     22.28768    0.4932154 
  172300   0.99748187   0.19528635    20.603439    22.294574   0.24046995 
  172400   0.98543509    0.1944447    20.604153    22.276381   0.37947172 
  172500   0.99001049   0.19425429     20.60963    22.288529   0.21908478 
  172600   0.99811457   0.19095748    20.599353    22.287108   0.45636359 
  172700   0.99999138   0.19506952    20.603557    22.298238   0.47925013 
  172800   0.99043757   0.19555313    20.606319    22.287157   0.23966545 
  172900    1.0046323   0.19474626    20.605201    22.306519   0.39587683 
  173000   0.99500816   0.19113082    20.606236    22.289506   0.36916734 
  173100    1.0071848   0.18746208    20.604078     22.30194   0.51472161 
  173200    1.0118128   0.18399773    20.605929    22.307267   0.13766245 
  173300    1.0122561   0.18737296    20.582637    22.288014   0.12444969 
  173400    1.0045093    0.1906168    20.613201    22.310205     0.403069 
  173500    1.0049898    0.1927314    20.610365    22.310205   0.34174427 
  173600    1.0050954   0.18931391     20.60267     22.29925   0.49328292 
  173700    1.0101165   0.18834977    20.600133    22.303279   0.48963494 
  173800    1.0132814   0.18353091    20.614517     22.31759   0.22965638 
  173900    1.0308793   0.18015831     20.59032     22.31641   0.51409353 
  174000    1.0265099   0.17668336    20.595939    22.312002  0.085584287 
Loop time of 0.481807 on 4 procs (4 MPI x 1 OpenMP) for 2000 steps with 4000 atoms

Pair  time (%) = 0.140251 (29.1094)
Bond  time (%) = 0.0461618 (9.58099)
Neigh time (%) = 0.0273624 (5.67913)
Comm  time (%) = 0.0998375 (20.7215)
Outpt time (%) = 0.000973165 (0.201982)
Other time (%) = 0.16722 (34.707)

Nlocal:    1000 ave 1014 max 970 min
Histogram: 1 0 0 0 0 0 0 1 0 2
Nghost:    1094 ave 1147 max 1063 min
Histogram: 2 0 0 1 0 0 0 0 0 1
Neighs:    3060.5 ave 3202 max 2928 min
Histogram: 1 0 0 0 2 0 0 0 0 1

Total # of neighbors = 12242
Ave neighs/atom = 3.0605
Ave special neighs/atom = 5.925
Neighbor list builds = 42
Dangerous builds = 0
shell          head -n 2 Temp.txt | tail -n 1 >> Tempfile.txt
shell          head -n 2 Bond.txt | tail -n 1 >> Bondfile.txt
next           myTempStr
next           myBondStr
if "${myBond} <= 0" then "jump imdinput.txt nobonds"
jump           imdinput.txt loop2here

# specifies the run length in timesteps
run            2000
WARNING: Use special bonds = 0,1,1 with bond style fene (../bond_fene.cpp:188)
Memory usage per processor = 5.58077 Mbytes
Step Temp E_pair E_mol TotEng Press 
  174000    1.0265099   0.17668336    20.595939    22.312002  0.085584287 
  174100    1.0154822     0.177504     20.59668    22.297026   0.30757312 
  174200    1.0078821   0.18042803    20.601349    22.293222   0.18308603 
  174300    1.0027109   0.18106787    20.599413    22.284171   0.39596781 
  174400    1.0001602   0.17967924    20.593791    22.273336     0.240915 
  174500    1.0086889   0.18005541    20.578109    22.270819   0.42787403 
  174600   0.99597388   0.18083927    20.591176    22.265602   0.56742586 
  174700   0.98922257   0.18137919    20.596321    22.261163   0.29222431 
  174800   0.99745755   0.18241636    20.590439    22.268668   0.13610513 
  174900     1.005324   0.18024428    20.574852    22.262705   0.18300633 
  175000   0.98824291    0.1816668    20.599403    22.263063   0.32393851 
  175100   0.99547792   0.18200247    20.594006    22.268852   0.47506156 
  175200   0.99781336   0.18089769    20.592658    22.269901   0.34108114 
  175300   0.98720693   0.18419939    20.599728    22.264367   0.28131817 
  175400   0.98456569   0.18626823    20.596269    22.259017   0.21097787 
  175500    1.0002322   0.18438142     20.57634    22.260695   0.38338885 
  175600   0.99585254   0.18312219    20.595738    22.272266    0.2589142 
  175700    1.0050967   0.18168929    20.601334    22.290292   0.44581172 
  175800   0.99720531   0.17862429    20.607661    22.281719   0.32354714 
  175900    1.0283988   0.17626159    20.591937    22.310411   0.52269535 
  176000    1.0105637   0.17826869    20.609475    22.303211   0.15203618 
Loop time of 0.477631 on 4 procs (4 MPI x 1 OpenMP) for 2000 steps with 4000 atoms

Pair  time (%) = 0.136189 (28.5135)
Bond  time (%) = 0.0462386 (9.68083)
Neigh time (%) = 0.027571 (5.77244)
Comm  time (%) = 0.0999579 (20.9279)
Outpt time (%) = 0.000974834 (0.204098)
Other time (%) = 0.166699 (34.9012)

Nlocal:    1000 ave 1017 max 982 min
Histogram: 1 0 0 1 0 0 0 1 0 1
Nghost:    1068.75 ave 1083 max 1055 min
Histogram: 1 0 0 1 0 1 0 0 0 1
Neighs:    2973.5 ave 3236 max 2728 min
Histogram: 1 0 1 0 0 0 0 1 0 1

Total # of neighbors = 11894
Ave neighs/atom = 2.9735
Ave special neighs/atom = 5.925
Neighbor list builds = 42
Dangerous builds = 0
shell          head -n 2 Temp.txt | tail -n 1 >> Tempfile.txt
shell          head -n 2 Bond.txt | tail -n 1 >> Bondfile.txt
next           myTempStr
next           myBondStr
if "${myBond} <= 0" then "jump imdinput.txt nobonds"
jump           imdinput.txt loop2here

# specifies the run length in timesteps
run            2000
WARNING: Use special bonds = 0,1,1 with bond style fene (../bond_fene.cpp:188)
Memory usage per processor = 5.58126 Mbytes
Step Temp E_pair E_mol TotEng Press 
  176000    1.0105637   0.17826869    20.609475    22.303211   0.15203618 
  176100    1.0097203   0.18065971    20.608404    22.303266   0.13178078 
  176200    1.0230303   0.18027984    20.598374    22.312815   0.46880887 
  176300    1.0167931   0.18506014    20.598487    22.308356    0.2303903 
  176400    1.0002596   0.18766114    20.610579    22.298254   0.43765507 
  176500    1.0043953   0.19275076    20.605654    22.304621   0.27863848 
  176600   0.99034373   0.19110877    20.609315    22.285568   0.39763919 
  176700   0.98953716   0.18929098    20.589846    22.263072   0.20398163 
  176800     1.002439   0.18824818     20.59563    22.287161    0.4585126 
  176900    1.0078221   0.19464652    20.591817    22.297819   0.27274576 
  177000    1.0129915   0.19859212    20.593475    22.311174   0.49036557 
  177100     1.027265   0.20111106    20.587591    22.329215   0.32982908 
  177200    1.0159502   0.20165432    20.596517    22.321715   0.47381818 
  177300    1.0090508   0.20176093    20.594816    22.309774   0.30665383 
  177400    1.0129778   0.19677486    20.605191    22.321052   0.26917604 
  177500    1.0108177   0.19579864    20.597334    22.308981   0.41551809 
  177600    1.0110925   0.20137643    20.590425    22.308061   0.29015337 
  177700     1.007494   0.20199485    20.602289    22.315147   0.58812503 
  177800    1.0055636   0.19676736    20.606396    22.311132     0.220966 
  177900    1.0173046   0.19495606    20.614226    22.334757   0.31590168 
  178000    1.0034871   0.19221725    20.623544    22.320616   0.37054985 
Loop time of 0.48419 on 4 procs (4 MPI x 1 OpenMP) for 2000 steps with 4000 atoms

Pair  time (%) = 0.139178 (28.7444)
Bond  time (%) = 0.0461937 (9.54041)
Neigh time (%) = 0.027825 (5.74672)
Comm  time (%) = 0.102334 (21.1351)
Outpt time (%) = 0.000986159 (0.203672)
Other time (%) = 0.167673 (34.6297)

Nlocal:    1000 ave 1007 max 989 min
Histogram: 1 0 0 0 0 1 0 0 0 2
Nghost:    1071 ave 1107 max 1043 min
Histogram: 1 0 0 2 0 0 0 0 0 1
Neighs:    3062 ave 3197 max 2981 min
Histogram: 1 1 0 1 0 0 0 0 0 1

Total # of neighbors = 12248
Ave neighs/atom = 3.062
Ave special neighs/atom = 5.925
Neighbor list builds = 42
Dangerous builds = 0
shell          head -n 2 Temp.txt | tail -n 1 >> Tempfile.txt
shell          head -n 2 Bond.txt | tail -n 1 >> Bondfile.txt
next           myTempStr
next           myBondStr
if "${myBond} <= 0" then "jump imdinput.txt nobonds"
jump           imdinput.txt loop2here

# specifies the run length in timesteps
run            2000
WARNING: Use special bonds = 0,1,1 with bond style fene (../bond_fene.cpp:188)
Memory usage per processor = 5.57833 Mbytes
Step Temp E_pair E_mol TotEng Press 
  178000    1.0034871   0.19221725    20.623544    22.320616   0.37054985 
  178100    1.0220361   0.18573599    20.600569    22.318976   0.57205417 
  178200    1.0169113   0.18323777    20.601827     22.31005   0.44241621 
  178300    1.0303972   0.18120065    20.597241    22.323651   0.21946944 
  178400    1.0314168   0.18069845    20.594417    22.321854   0.36722626 
  178500    1.0153983   0.18658137      20.6055    22.314798   0.18955956 
  178600    1.0061146   0.19302872    20.610727     22.31255   0.28097513 
  178700   0.99546329   0.19433108    20.613185    22.300338   0.36291974 
  178800    1.0133426    0.1906294    20.607123    22.317387   0.43700656 
  178900    1.0114802   0.18855826    20.610166    22.315565   0.29660028 
  179000    1.0127547   0.18703278    20.605977    22.311762   0.37937998 
  179100    1.0091525   0.18560999    20.617145    22.316106   0.29010521 
  179200    1.0256908   0.17992031    20.615077    22.333149   0.21442326 
  179300    1.0193974   0.17736193    20.618851    22.324927   0.20627859 
  179400    1.0338509   0.18084356    20.592106    22.323338   0.43383426 
  179500     1.021074   0.18331964    20.606961    22.321509   0.25373743 
  179600    1.0085968   0.18604096    20.606235    22.304793   0.25343066 
  179700    1.0096811   0.18649015    20.608979    22.309613   0.15714965 
  179800    1.0076126   0.18773373    20.596112    22.294886   0.26151391 
  179900   0.99231219   0.18887973     20.59801    22.274986   0.40794065 
  180000   0.97733268    0.1941444    20.598023      22.2578    0.2721865 
Loop time of 0.481617 on 4 procs (4 MPI x 1 OpenMP) for 2000 steps with 4000 atoms

Pair  time (%) = 0.138669 (28.7925)
Bond  time (%) = 0.0462028 (9.59328)
Neigh time (%) = 0.0265315 (5.50884)
Comm  time (%) = 0.100988 (20.9685)
Outpt time (%) = 0.000938833 (0.194934)
Other time (%) = 0.168286 (34.942)

Nlocal:    1000 ave 1007 max 986 min
Histogram: 1 0 0 0 0 0 0 1 0 2
Nghost:    1038.25 ave 1044 max 1029 min
Histogram: 1 0 0 0 0 0 1 0 1 1
Neighs:    3067.5 ave 3152 max 2974 min
Histogram: 1 0 0 1 0 0 0 1 0 1

Total # of neighbors = 12270
Ave neighs/atom = 3.0675
Ave special neighs/atom = 5.925
Neighbor list builds = 41
Dangerous builds = 0
shell          head -n 2 Temp.txt | tail -n 1 >> Tempfile.txt
shell          head -n 2 Bond.txt | tail -n 1 >> Bondfile.txt
next           myTempStr
next           myBondStr
if "${myBond} <= 0" then "jump imdinput.txt nobonds"
jump           imdinput.txt loop2here

# specifies the run length in timesteps
run            2000
WARNING: Use special bonds = 0,1,1 with bond style fene (../bond_fene.cpp:188)
Memory usage per processor = 5.57882 Mbytes
Step Temp E_pair E_mol TotEng Press 
  180000   0.97733268    0.1941444    20.598023      22.2578    0.2721865 
  180100   0.97890692   0.19672022     20.59378    22.258493   0.35990428 
  180200   0.97682077   0.19066301    20.595888    22.251416   0.50266575 
  180300   0.98711147   0.18395556    20.603457     22.26771   0.20243306 
  180400   0.97331526   0.17898459     20.60953    22.248123   0.10113887 
  180500    0.9889222   0.17918501    20.603291    22.265489   0.15679223 
  180600   0.98919001   0.18393524    20.597854    22.265203   0.50622978 
  180700   0.99840008    0.1882198     20.60188    22.287326   0.43078909 
  180800    1.0089095   0.18704763    20.587769    22.287802   0.22153164 
  180900    1.0034496   0.18227669    20.585017    22.272092   0.38889958 
  181000   0.99466122   0.17832534    20.583152    22.253096   0.11336984 
  181100   0.99867259   0.18093642    20.589079     22.26765   0.37560272 
  181200   0.99848459   0.18400862    20.585809     22.26717   0.51800198 
  181300    0.9875225   0.18864434    20.597732     22.26729   0.48453541 
  181400    1.0037048   0.19341575    20.589592    22.288189   0.23037627 
  181500   0.99108182   0.19719289    20.594822    22.278266    0.2047632 
  181600   0.99334346   0.19746915    20.589557    22.276669   0.55095668 
  181700    1.0115053   0.19442795    20.574002    22.285309   0.17332142 
  181800    1.0047308   0.19042755    20.590718    22.287865   0.20318612 
  181900   0.99424774   0.18796633    20.588085     22.26705   0.44632461 
  182000   0.99719062   0.18638473    20.594053     22.27585   0.12216141 
Loop time of 0.478766 on 4 procs (4 MPI x 1 OpenMP) for 2000 steps with 4000 atoms

Pair  time (%) = 0.137633 (28.7475)
Bond  time (%) = 0.0461202 (9.63314)
Neigh time (%) = 0.0273828 (5.71946)
Comm  time (%) = 0.0996107 (20.8057)
Outpt time (%) = 0.000958622 (0.200228)
Other time (%) = 0.16706 (34.8939)

Nlocal:    1000 ave 1009 max 989 min
Histogram: 1 0 0 0 0 1 0 1 0 1
Nghost:    1049.25 ave 1100 max 1024 min
Histogram: 2 0 1 0 0 0 0 0 0 1
Neighs:    3056 ave 3244 max 2780 min
Histogram: 1 0 0 0 0 0 1 1 0 1

Total # of neighbors = 12224
Ave neighs/atom = 3.056
Ave special neighs/atom = 5.925
Neighbor list builds = 43
Dangerous builds = 0
shell          head -n 2 Temp.txt | tail -n 1 >> Tempfile.txt
shell          head -n 2 Bond.txt | tail -n 1 >> Bondfile.txt
next           myTempStr
next           myBondStr
if "${myBond} <= 0" then "jump imdinput.txt nobonds"
jump           imdinput.txt loop2here

# specifies the run length in timesteps
run            2000
WARNING: Use special bonds = 0,1,1 with bond style fene (../bond_fene.cpp:188)
Memory usage per processor = 5.57955 Mbytes
Step Temp E_pair E_mol TotEng Press 
  182000   0.99719062   0.18638473    20.594053     22.27585   0.12216141 
  182100   0.99443921   0.18932921    20.598931    22.279546   0.46987658 
  182200   0.97859098   0.19347734    20.588101    22.249098   0.20952637 
  182300    0.9970435   0.19520147    20.586752    22.277145   0.29730064 
  182400   0.99316611   0.19684762    20.609614    22.295839    0.2542647 
  182500    1.0070994   0.19734484     20.60457    22.312186   0.46968529 
  182600    1.0124764   0.19689831    20.588018    22.303252    0.5007521 
  182700    1.0109657   0.19434295    20.595087      22.3055   0.48836452 
  182800     1.000133    0.1970768    20.597848    22.294749  0.093298869 
  182900   0.99451124   0.19950815     20.60298    22.293882   0.32031187 
  183000    1.0002138   0.20074353    20.584388    22.285077   0.29765541 
  183100    1.0032513   0.20337863    20.588152    22.296032   0.45344981 
  183200   0.99149959    0.2038432    20.599901    22.290622   0.41373074 
  183300   0.99702215   0.20249734    20.599546    22.297203   0.18433611 
  183400    1.0046346   0.19424885    20.594113    22.294937    0.2972908 
  183500   0.99748013   0.18711334    20.599432    22.282391   0.29475812 
  183600    1.0046329   0.18423002    20.591871    22.282673    0.6630147 
  183700   0.99427418   0.18464661    20.597531    22.273216   0.37510561 
  183800     1.001523   0.18358746    20.585084    22.270581    0.4298213 
  183900   0.99533195    0.1828458    20.600897    22.276368   0.12722004 
  184000    0.9882118   0.18497827    20.614594    22.281519   0.41605551 
Loop time of 0.47899 on 4 procs (4 MPI x 1 OpenMP) for 2000 steps with 4000 atoms

Pair  time (%) = 0.14037 (29.3055)
Bond  time (%) = 0.0460295 (9.6097)
Neigh time (%) = 0.0270652 (5.65048)
Comm  time (%) = 0.0982832 (20.5188)
Outpt time (%) = 0.00104553 (0.218277)
Other time (%) = 0.166196 (34.6973)

Nlocal:    1000 ave 1046 max 975 min
Histogram: 1 1 1 0 0 0 0 0 0 1
Nghost:    1078.75 ave 1096 max 1051 min
Histogram: 1 0 0 0 0 0 1 1 0 1
Neighs:    3075 ave 3405 max 2827 min
Histogram: 1 0 1 0 1 0 0 0 0 1

Total # of neighbors = 12300
Ave neighs/atom = 3.075
Ave special neighs/atom = 5.925
Neighbor list builds = 42
Dangerous builds = 0
shell          head -n 2 Temp.txt | tail -n 1 >> Tempfile.txt
shell          head -n 2 Bond.txt | tail -n 1 >> Bondfile.txt
next           myTempStr
next           myBondStr
if "${myBond} <= 0" then "jump imdinput.txt nobonds"
jump           imdinput.txt loop2here

# specifies the run length in timesteps
run            2000
WARNING: Use special bonds = 0,1,1 with bond style fene (../bond_fene.cpp:188)
Memory usage per processor = 5.5881 Mbytes
Step Temp E_pair E_mol TotEng Press 
  184000    0.9882118   0.18497827    20.614594    22.281519   0.41605551 
  184100   0.99859237    0.1876903    20.596621    22.281825   0.25545391 
  184200   0.98887096   0.18512631    20.593962    22.262024   0.38065472 
  184300   0.98615799   0.18435888    20.600095    22.263321   0.23707619 
  184400   0.98353319   0.18451608    20.595742    22.255189   0.50148164 
  184500   0.97078633   0.18564649    20.597457    22.238919   0.34944739 
  184600   0.97274864   0.18801004    20.588638    22.235406   0.22645777 
  184700   0.98219821   0.19397395    20.582409    22.249312   0.49576639 
  184800   0.97151107   0.20009437    20.591466    22.248463   0.69823168 
  184900    0.9680569    0.2013655    20.593208    22.246296   0.40278526 
  185000   0.97191399   0.20014641    20.595612    22.253265   0.11674303 
  185100   0.98991803   0.19773655    20.569301    22.251543   0.47534879 
  185200   0.98862876   0.19567289    20.591453    22.269698 -0.077010577 
  185300   0.99861171   0.19178449    20.583443    22.272771   0.50111129 
  185400   0.99688025   0.19165931     20.60142    22.288026   0.37850944 
  185500     1.008059   0.19446254    20.596004    22.302177     0.238485 
  185600    1.0110095   0.19566534     20.58133    22.293131   0.32527112 
  185700    1.0081941   0.19740114    20.574657    22.283971   0.35410776 
  185800   0.99060963   0.19907382    20.597895    22.282512   0.50608076 
  185900   0.98912866   0.20041717    20.594728    22.278467   0.27518642 
  186000   0.99894779   0.19801786    20.598352    22.294417   0.37456159 
Loop time of 0.489196 on 4 procs (4 MPI x 1 OpenMP) for 2000 steps with 4000 atoms

Pair  time (%) = 0.140961 (28.8148)
Bond  time (%) = 0.0465157 (9.5086)
Neigh time (%) = 0.0285324 (5.83251)
Comm  time (%) = 0.104308 (21.3222)
Outpt time (%) = 0.000942886 (0.192742)
Other time (%) = 0.167937 (34.3292)

Nlocal:    1000 ave 1017 max 972 min
Histogram: 1 0 0 0 0 1 0 0 0 2
Nghost:    1105 ave 1161 max 1083 min
Histogram: 2 1 0 0 0 0 0 0 0 1
Neighs:    3129.5 ave 3367 max 2927 min
Histogram: 1 1 0 0 0 0 1 0 0 1

Total # of neighbors = 12518
Ave neighs/atom = 3.1295
Ave special neighs/atom = 5.925
Neighbor list builds = 42
Dangerous builds = 0
shell          head -n 2 Temp.txt | tail -n 1 >> Tempfile.txt
shell          head -n 2 Bond.txt | tail -n 1 >> Bondfile.txt
next           myTempStr
next           myBondStr
if "${myBond} <= 0" then "jump imdinput.txt nobonds"
jump           imdinput.txt loop2here

# specifies the run length in timesteps
run            2000
WARNING: Use special bonds = 0,1,1 with bond style fene (../bond_fene.cpp:188)
Memory usage per processor = 5.58102 Mbytes
Step Temp E_pair E_mol TotEng Press 
  186000   0.99894779   0.19801786    20.598352    22.294417   0.37456159 
  186100   0.98471345   0.19194434    20.603176    22.271821   0.41303076 
  186200    1.0040043    0.1878248    20.592857    22.286312   0.41757766 
  186300    1.0060198    0.1878617    20.596824    22.293338   0.16206046 
  186400    1.0045147   0.18626279    20.581291     22.27395   0.26679697 
  186500   0.99815751   0.18590207    20.593608    22.276372   0.35743353 
  186600   0.99253758   0.18270761    20.605124    22.276266  0.064229815 
  186700    1.0047329   0.18179908    20.587326    22.275848    0.4868844 
  186800    1.0040222   0.18337916    20.601306    22.290342   0.42968968 
  186900    1.0085455   0.18087444    20.588867    22.282182    0.4741914 
  187000    1.0112385   0.18430798    20.589364     22.29015   0.28002787 
  187100    1.0115293   0.18767848    20.597695    22.302288   0.51450325 
  187200   0.99652576   0.19102116    20.581458    22.266894   0.40298966 
  187300   0.99357398   0.19167712    20.582778    22.264443   0.29713514 
  187400   0.99898559   0.18908748    20.584859    22.272051    0.5138051 
  187500    1.0079528   0.18816575    20.580735    22.280452   0.20877879 
  187600   0.99410783   0.18654527     20.60386    22.281194    0.2969488 
  187700    1.0037782   0.18479654    20.566994    22.257082   0.32940518 
  187800   0.99711406   0.18701003    20.583453     22.26576    0.5084124 
  187900   0.97905304   0.19083311    20.588776    22.247822   0.39021125 
  188000   0.98889314   0.19405014    20.584428    22.261447   0.28251467 
Loop time of 0.621466 on 4 procs (4 MPI x 1 OpenMP) for 2000 steps with 4000 atoms

Pair  time (%) = 0.167687 (26.9825)
Bond  time (%) = 0.0594393 (9.56436)
Neigh time (%) = 0.0344172 (5.53806)
Comm  time (%) = 0.154375 (24.8404)
Outpt time (%) = 0.00103432 (0.166432)
Other time (%) = 0.204514 (32.9083)

Nlocal:    1000 ave 1030 max 962 min
Histogram: 1 0 0 1 0 0 0 0 0 2
Nghost:    1074 ave 1097 max 1062 min
Histogram: 1 1 1 0 0 0 0 0 0 1
Neighs:    3077.25 ave 3312 max 2878 min
Histogram: 2 0 0 0 0 0 0 1 0 1

Total # of neighbors = 12309
Ave neighs/atom = 3.07725
Ave special neighs/atom = 5.925
Neighbor list builds = 42
Dangerous builds = 0
shell          head -n 2 Temp.txt | tail -n 1 >> Tempfile.txt
shell          head -n 2 Bond.txt | tail -n 1 >> Bondfile.txt
next           myTempStr
next           myBondStr
if "${myBond} <= 0" then "jump imdinput.txt nobonds"
jump           imdinput.txt loop2here

# specifies the run length in timesteps
run            2000
WARNING: Use special bonds = 0,1,1 with bond style fene (../bond_fene.cpp:188)
Memory usage per processor = 5.58443 Mbytes
Step Temp E_pair E_mol TotEng Press 
  188000   0.98889314   0.19405014    20.584428    22.261447   0.28251467 
  188100   0.97775699   0.19633021    20.588594    22.251193   0.52489141 
  188200   0.99427514   0.19159281    20.574323    22.256956   0.28317609 
  188300   0.99013695   0.18814816    20.583095    22.256078   0.26768443 
  188400   0.99155034   0.18862723    20.585277    22.260857  0.095397075 
  188500   0.99117153   0.19003359    20.587053    22.263472   0.55401104 
  188600   0.97979144   0.19191988    20.594731    22.255971   0.33977666 
  188700   0.99867627   0.19621428    20.577554    22.271408   0.44306682 
  188800   0.98856981   0.19928225    20.584362    22.266129    0.1193613 
  188900   0.98743794   0.19848973    20.576496    22.255773   0.37015589 
  189000   0.99918428   0.20037531    20.566849    22.265626   0.60605441 
  189100   0.97349284   0.20259848    20.599799    22.262272   0.18332307 
  189200   0.98766926   0.20095817    20.586731    22.268823   0.17558233 
  189300   0.99531827   0.19897948    20.584986     22.27657   0.34442315 
  189400    0.9849545   0.19700179    20.603057    22.277121   0.36049071 
  189500   0.99655312   0.19707922    20.596506    22.288041   0.57091696 
  189600   0.97794885   0.19548211    20.614153    22.276192   0.35452637 
  189700    1.0024451   0.19824945    20.583032    22.284573   0.27304001 
  189800   0.98596942   0.19841938    20.590076     22.26708   0.36775058 
  189900   0.98395152   0.19755605     20.59574    22.268854   0.55098732 
  190000   0.99164245    0.1965446    20.595926    22.279562   0.14963407 
Loop time of 0.640733 on 4 procs (4 MPI x 1 OpenMP) for 2000 steps with 4000 atoms

Pair  time (%) = 0.175286 (27.3572)
Bond  time (%) = 0.0599461 (9.35587)
Neigh time (%) = 0.0343888 (5.3671)
Comm  time (%) = 0.162058 (25.2926)
Outpt time (%) = 0.00100642 (0.157074)
Other time (%) = 0.208047 (32.4702)

Nlocal:    1000 ave 1057 max 963 min
Histogram: 2 0 0 0 0 1 0 0 0 1
Nghost:    1057.5 ave 1070 max 1043 min
Histogram: 1 0 0 0 1 0 0 1 0 1
Neighs:    3053.25 ave 3505 max 2736 min
Histogram: 1 1 0 0 0 1 0 0 0 1

Total # of neighbors = 12213
Ave neighs/atom = 3.05325
Ave special neighs/atom = 5.925
Neighbor list builds = 41
Dangerous builds = 0
shell          head -n 2 Temp.txt | tail -n 1 >> Tempfile.txt
shell          head -n 2 Bond.txt | tail -n 1 >> Bondfile.txt
next           myTempStr
next           myBondStr
if "${myBond} <= 0" then "jump imdinput.txt nobonds"
jump           imdinput.txt loop2here

# specifies the run length in timesteps
run            2000
WARNING: Use special bonds = 0,1,1 with bond style fene (../bond_fene.cpp:188)
Memory usage per processor = 5.59054 Mbytes
Step Temp E_pair E_mol TotEng Press 
  190000   0.99164245    0.1965446    20.595926    22.279562   0.14963407 
  190100   0.98391487   0.19616134    20.600205     22.27187   0.29558827 
  190200   0.99723203   0.19600957    20.584154    22.275638   0.42968944 
  190300   0.99975821   0.19593949    20.583112    22.278314   0.47001653 
  190400    1.0002731   0.19279509    20.585894    22.278724   0.39483787 
  190500   0.99738451   0.18747916    20.596673    22.279855   0.39760609 
  190600   0.99368402   0.18643437     20.59431    22.270897   0.18803343 
  190700   0.98342105   0.18747829    20.588192    22.250433   0.43463719 
  190800   0.99147439   0.19199842     20.58884    22.267678   0.29633945 
  190900    1.0088847   0.19756115    20.583562    22.294072   0.34744075 
  191000    1.0131552   0.20093206    20.580426    22.300711   0.44130438 
  191100   0.99499118   0.20311002    20.605212    22.300435   0.43832131 
  191200    1.0151591   0.20058755    20.577319    22.300265   0.46969162 
  191300    1.0112108   0.19769551    20.597384    22.311516   0.44059307 
  191400    1.0072272   0.19955809    20.594339    22.304361   0.11879895 
  191500   0.99251578   0.20117913     20.60873     22.29831   0.28673587 
  191600    1.0167922   0.19596903    20.583323    22.304099   0.42677672 
  191700   0.99984702   0.19450134    20.597881    22.291778   0.26638566 
  191800   0.98930297   0.19643711     20.58879     22.26881   0.38549493 
  191900   0.99621828   0.19770634    20.588409    22.280069   0.45296365 
  192000   0.98987702    0.1978015    20.597856    22.280102   0.32301907 
Loop time of 0.651941 on 4 procs (4 MPI x 1 OpenMP) for 2000 steps with 4000 atoms

Pair  time (%) = 0.172033 (26.3877)
Bond  time (%) = 0.0576904 (8.84902)
Neigh time (%) = 0.0362679 (5.56307)
Comm  time (%) = 0.17824 (27.3399)
Outpt time (%) = 0.000988543 (0.151631)
Other time (%) = 0.206721 (31.7086)

Nlocal:    1000 ave 1065 max 951 min
Histogram: 1 0 0 2 0 0 0 0 0 1
Nghost:    1098.25 ave 1133 max 1067 min
Histogram: 1 0 1 0 0 0 1 0 0 1
Neighs:    3109 ave 3584 max 2750 min
Histogram: 1 0 0 2 0 0 0 0 0 1

Total # of neighbors = 12436
Ave neighs/atom = 3.109
Ave special neighs/atom = 5.925
Neighbor list builds = 42
Dangerous builds = 0
shell          head -n 2 Temp.txt | tail -n 1 >> Tempfile.txt
shell          head -n 2 Bond.txt | tail -n 1 >> Bondfile.txt
next           myTempStr
next           myBondStr
if "${myBond} <= 0" then "jump imdinput.txt nobonds"
jump           imdinput.txt loop2here

# specifies the run length in timesteps
run            2000
WARNING: Use special bonds = 0,1,1 with bond style fene (../bond_fene.cpp:188)
Memory usage per processor = 5.59298 Mbytes
Step Temp E_pair E_mol TotEng Press 
  192000   0.98987702    0.1978015    20.597856    22.280102   0.32301907 
  192100    1.0113321   0.19544409    20.597865    22.309928   0.22438585 
  192200    1.0024967   0.19468121    20.607117    22.305167   0.33980881 
  192300    1.0216879    0.1916353    20.585599    22.309383   0.62157017 
  192400    1.0181412   0.19271273    20.594469    22.314011   0.38267871 
  192500    1.0171437   0.19647808    20.593249    22.315061   0.13695056 
  192600    1.0136846   0.20466252    20.587605    22.312415    0.3313369 
  192700    1.0185418   0.21032709    20.581108    22.318866   0.45343756 
  192800    1.0045096   0.20782295    20.588996    22.303207   0.33127728 
  192900    1.0021201   0.20273508    20.577457    22.282996   0.34951497 
  193000    1.0081938   0.20244806    20.561514    22.275875   0.46002207 
  193100   0.99639104   0.19864863    20.582509    22.275371   0.25899085 
  193200    1.0069082   0.19595475    20.573205    22.279144  0.052317864 
  193300    1.0048031   0.19380393    20.579722    22.280354   0.35554927 
  193400    1.0033295   0.19432091    20.580392    22.279331   0.46811262 
  193500   0.99621258   0.19168364    20.580935    22.266564   0.27799857 
  193600   0.99550383   0.18866156     20.57839    22.259934     0.369074 
  193700   0.98442601   0.18751711    20.606946    22.270733   0.38340907 
  193800   0.99913748   0.18697883    20.591689    22.276999   0.54966227 
  193900    1.0130239   0.18473822    20.578369    22.282264   0.37457289 
  194000    1.0077402   0.18473822    20.584141    22.280112   0.17125339 
Loop time of 0.651187 on 4 procs (4 MPI x 1 OpenMP) for 2000 steps with 4000 atoms

Pair  time (%) = 0.172345 (26.4662)
Bond  time (%) = 0.0585923 (8.99777)
Neigh time (%) = 0.0363494 (5.58202)
Comm  time (%) = 0.175539 (26.9567)
Outpt time (%) = 0.000981271 (0.15069)
Other time (%) = 0.207381 (31.8466)

Nlocal:    1000 ave 1070 max 973 min
Histogram: 2 1 0 0 0 0 0 0 0 1
Nghost:    1089.5 ave 1094 max 1085 min
Histogram: 1 0 0 0 1 1 0 0 0 1
Neighs:    3045 ave 3452 max 2821 min
Histogram: 1 1 0 1 0 0 0 0 0 1

Total # of neighbors = 12180
Ave neighs/atom = 3.045
Ave special neighs/atom = 5.925
Neighbor list builds = 42
Dangerous builds = 0
shell          head -n 2 Temp.txt | tail -n 1 >> Tempfile.txt
shell          head -n 2 Bond.txt | tail -n 1 >> Bondfile.txt
next           myTempStr
next           myBondStr
if "${myBond} <= 0" then "jump imdinput.txt nobonds"
jump           imdinput.txt loop2here

# specifies the run length in timesteps
run            2000
WARNING: Use special bonds = 0,1,1 with bond style fene (../bond_fene.cpp:188)
Memory usage per processor = 5.5942 Mbytes
Step Temp E_pair E_mol TotEng Press 
  194000    1.0077402   0.18473822    20.584141    22.280112   0.17125339 
  194100   0.99252133   0.18815634    20.592831    22.269397   0.25779201 
  194200    1.0004913   0.19153882    20.578009     22.26991   0.32157894 
  194300   0.99970794   0.19157865    20.585526    22.276292   0.32673102 
  194400   0.99051571    0.1887068    20.578215    22.252324   0.21139915 
  194500   0.97614332   0.19090411    20.587955    22.242708    0.3055971 
  194600    0.9927479   0.18810671    20.600897    22.277753   0.37623154 
  194700   0.99800867   0.19020233    20.587438     22.27428   0.27439888 
  194800   0.99930043   0.19208308    20.583272    22.273931   0.46142282 
  194900   0.99325949   0.19308697    20.587761    22.270364   0.29023855 
  195000   0.99295147   0.19373474    20.593162    22.275951   0.31916366 
  195100    0.9918149   0.19481023    20.605006    22.287167    0.1701673 
  195200   0.99054939   0.19594607    20.591167    22.272566   0.42001241 
  195300   0.99420486   0.19477844     20.60236    22.288073   0.36968989 
  195400    1.0025628   0.19406327    20.590242    22.287774   0.39001405 
  195500    1.0086808    0.1955782    20.590855    22.299076    0.4128008 
  195600    1.0165385   0.19797769    20.585512    22.307916    0.4337589 
  195700    1.0022171   0.19537655    20.609094    22.307421     0.369582 
  195800    1.0134927   0.19262257    20.603771    22.316253  0.092064944 
  195900    1.0237228   0.18951707    20.590726    22.315444   0.25307182 
  196000    1.0143975   0.18648704     20.58775    22.295453    0.3235808 
Loop time of 0.644665 on 4 procs (4 MPI x 1 OpenMP) for 2000 steps with 4000 atoms

Pair  time (%) = 0.17043 (26.4371)
Bond  time (%) = 0.0598772 (9.28812)
Neigh time (%) = 0.0354732 (5.50258)
Comm  time (%) = 0.170522 (26.4512)
Outpt time (%) = 0.000961423 (0.149135)
Other time (%) = 0.207401 (32.1719)

Nlocal:    1000 ave 1044 max 946 min
Histogram: 1 0 0 0 1 0 0 1 0 1
Nghost:    1065 ave 1106 max 1022 min
Histogram: 1 0 0 0 1 1 0 0 0 1
Neighs:    3097.5 ave 3410 max 2729 min
Histogram: 1 0 0 0 0 1 1 0 0 1

Total # of neighbors = 12390
Ave neighs/atom = 3.0975
Ave special neighs/atom = 5.925
Neighbor list builds = 42
Dangerous builds = 0
shell          head -n 2 Temp.txt | tail -n 1 >> Tempfile.txt
shell          head -n 2 Bond.txt | tail -n 1 >> Bondfile.txt
next           myTempStr
next           myBondStr
if "${myBond} <= 0" then "jump imdinput.txt nobonds"
jump           imdinput.txt loop2here

# specifies the run length in timesteps
run            2000
WARNING: Use special bonds = 0,1,1 with bond style fene (../bond_fene.cpp:188)
Memory usage per processor = 5.58761 Mbytes
Step Temp E_pair E_mol TotEng Press 
  196000    1.0143975   0.18648704     20.58775    22.295453    0.3235808 
  196100   0.99255826   0.18338294     20.60281    22.274658   0.43331341 
  196200    1.0032761   0.18148687    20.606055     22.29208    0.3564855 
  196300    1.0134641   0.18453862    20.583858    22.288213   0.55718719 
  196400    1.0104664   0.19085933    20.592985    22.299165   0.39812187 
  196500   0.99086472   0.19700122    20.601794    22.284721   0.25893377 
  196600   0.99832016    0.1998447     20.59343    22.290381   0.28354842 
  196700    1.0004771    0.2006682    20.599781     22.30079   0.35762436 
  196800    1.0064676   0.19608037    20.577309    22.282713   0.27878695 
  196900   0.99937778   0.19387333    20.596016    22.288581   0.33461851 
  197000    1.0140866   0.19417479    20.580932    22.295856   0.23250913 
  197100    1.0047236   0.19305109    20.581349    22.281109   0.32334248 
  197200   0.98610749   0.19276815    20.601724    22.273283  0.089119376 
  197300    1.0010242   0.19342718    20.580815    22.275403   0.31605018 
  197400    1.0065922   0.19480784     20.58156    22.285878    0.4343402 
  197500   0.98421549   0.19571027    20.600781    22.272445   0.18588772 
  197600    1.0089296   0.19545382    20.582062    22.290532   0.31020593 
  197700    1.0009557   0.19538541    20.586322    22.282766   0.44520619 
  197800   0.99892355     0.190746    20.585233     22.27399   0.40863691 
  197900   0.99558223   0.19258374    20.593769    22.279353   0.17223737 
  198000   0.99647189   0.19200271    20.594932    22.281269   0.32937416 
Loop time of 0.644325 on 4 procs (4 MPI x 1 OpenMP) for 2000 steps with 4000 atoms

Pair  time (%) = 0.173923 (26.993)
Bond  time (%) = 0.0620838 (9.63548)
Neigh time (%) = 0.0357395 (5.54681)
Comm  time (%) = 0.161763 (25.1058)
Outpt time (%) = 0.000968933 (0.150379)
Other time (%) = 0.209848 (32.5686)

Nlocal:    1000 ave 1057 max 945 min
Histogram: 1 0 0 0 1 1 0 0 0 1
Nghost:    1087 ave 1124 max 1056 min
Histogram: 1 0 1 0 0 1 0 0 0 1
Neighs:    3117.5 ave 3521 max 2730 min
Histogram: 1 0 0 1 0 0 1 0 0 1

Total # of neighbors = 12470
Ave neighs/atom = 3.1175
Ave special neighs/atom = 5.925
Neighbor list builds = 42
Dangerous builds = 0
shell          head -n 2 Temp.txt | tail -n 1 >> Tempfile.txt
shell          head -n 2 Bond.txt | tail -n 1 >> Bondfile.txt
next           myTempStr
next           myBondStr
if "${myBond} <= 0" then "jump imdinput.txt nobonds"
jump           imdinput.txt loop2here

# specifies the run length in timesteps
run            2000
WARNING: Use special bonds = 0,1,1 with bond style fene (../bond_fene.cpp:188)
Memory usage per processor = 5.59103 Mbytes
Step Temp E_pair E_mol TotEng Press 
  198000   0.99647189   0.19200271    20.594932    22.281269   0.32937416 
  198100   0.99183381   0.19315012    20.593571      22.2741   0.31135622 
  198200   0.99538043   0.19281114    20.598063    22.283572   0.30252664 
  198300     0.994213   0.19030216    20.597906    22.279155   0.17858038 
  198400    1.0092561   0.18889532    20.593226    22.295627   0.41875511 
  198500    1.0040057   0.18799517    20.596067    22.289694   0.38705317 
  198600    1.0069241   0.19122497    20.602665    22.303899   0.18468716 
  198700    1.0138339   0.19113301    20.599979    22.311483   0.37312667 
  198800    1.0079515   0.19538659    20.600779    22.307715   0.30377706 
  198900    1.0054438   0.19621685    20.596109    22.300115   0.38962955 
  199000   0.99842312   0.19939864    20.589084    22.285743   0.30652046 
  199100    1.0076885   0.20493969    20.577546     22.29364   0.34688233 
  199200    1.0024746     0.209168    20.598601    22.311105   0.32867985 
  199300    1.0084435   0.20343155    20.591331     22.30705    0.4826171 
  199400    1.0231964   0.19521105    20.601268     22.33089   0.29129018 
  199500    1.0406968   0.18955548    20.579263    22.329473   0.37669381 
  199600    1.0339305   0.18791118    20.593543    22.331962   0.52238505 
  199700    1.0300902   0.18802196    20.600275    22.333046   0.27776223 
  199800    1.0213426   0.18961588     20.58514    22.306387   0.40417598 
  199900    1.0189459   0.18985257    20.605279    22.323169   0.12675792 
  200000    1.0192269    0.1941554    20.598162    22.320775   0.41163167 
Loop time of 0.647933 on 4 procs (4 MPI x 1 OpenMP) for 2000 steps with 4000 atoms

Pair  time (%) = 0.174132 (26.8749)
Bond  time (%) = 0.0610086 (9.41588)
Neigh time (%) = 0.0366799 (5.66106)
Comm  time (%) = 0.165924 (25.6081)
Outpt time (%) = 0.00101793 (0.157104)
Other time (%) = 0.209172 (32.2829)

Nlocal:    1000 ave 1025 max 971 min
Histogram: 1 0 0 0 1 0 0 1 0 1
Nghost:    1057 ave 1099 max 997 min
Histogram: 1 0 0 0 0 1 0 0 1 1
Neighs:    3061.5 ave 3342 max 2689 min
Histogram: 1 0 0 0 0 1 0 1 0 1

Total # of neighbors = 12246
Ave neighs/atom = 3.0615
Ave special neighs/atom = 5.925
Neighbor list builds = 43
Dangerous builds = 0
shell          head -n 2 Temp.txt | tail -n 1 >> Tempfile.txt
shell          head -n 2 Bond.txt | tail -n 1 >> Bondfile.txt
next           myTempStr
next           myBondStr
if "${myBond} <= 0" then "jump imdinput.txt nobonds"
jump           imdinput.txt loop2here

# specifies the run length in timesteps
run            2000
WARNING: Use special bonds = 0,1,1 with bond style fene (../bond_fene.cpp:188)
Memory usage per processor = 5.5837 Mbytes
Step Temp E_pair E_mol TotEng Press 
  200000    1.0192269    0.1941554    20.598162    22.320775   0.41163167 
  200100    1.0235465   0.19631687    20.588976    22.320229   0.42940547 
  200200    1.0089553   0.19884329    20.610303    22.322201   0.28290035 
  200300     1.017369   0.20300997     20.60577    22.334452   0.38899957 
  200400    1.0120698   0.20828356    20.607213    22.333222    0.2436161 
  200500    1.0039655   0.20961894    20.597681    22.312872   0.25987248 
  200600    1.0083121   0.20682377    20.584213    22.303127   0.23977612 
  200700   0.99935306   0.20240184    20.618652    22.319708    0.3649783 
  200800    1.0191873   0.19978258    20.611301    22.339482   0.36051046 
  200900    1.0211545   0.19877586    20.603144    22.333268   0.39159585 
  201000    1.0282543   0.19513185    20.601297    22.338425   0.31994964 
  201100    1.0307234   0.19235483    20.608094    22.346148   0.35549767 
  201200    1.0296319   0.19471047    20.604539    22.343311   0.22046988 
  201300    1.0412692   0.19663341    20.587539    22.345685   0.50433392 
  201400    1.0200109   0.20035145    20.613269    22.343254   0.23819232 
  201500    1.0135564   0.20169688    20.596046    22.317697   0.34432451 
  201600   0.99601277   0.20025229    20.607208    22.301106   0.33854522 
  201700     1.005635   0.19792599    20.597154    22.303155    0.2771028 
  201800   0.98887271   0.19390131      20.6172     22.29404   0.23764929 
  201900    1.0072801   0.19504641    20.580802    22.286391   0.61573197 
  202000    1.0046037   0.19251251    20.592317    22.291358   0.31754014 
Loop time of 0.652357 on 4 procs (4 MPI x 1 OpenMP) for 2000 steps with 4000 atoms

Pair  time (%) = 0.179564 (27.5254)
Bond  time (%) = 0.062188 (9.53281)
Neigh time (%) = 0.0347475 (5.32645)
Comm  time (%) = 0.160933 (24.6695)
Outpt time (%) = 0.00106466 (0.163202)
Other time (%) = 0.21386 (32.7826)

Nlocal:    1000 ave 1039 max 971 min
Histogram: 1 0 0 2 0 0 0 0 0 1
Nghost:    1038.75 ave 1062 max 1021 min
Histogram: 1 1 0 0 0 1 0 0 0 1
Neighs:    3102.75 ave 3339 max 2976 min
Histogram: 2 0 0 1 0 0 0 0 0 1

Total # of neighbors = 12411
Ave neighs/atom = 3.10275
Ave special neighs/atom = 5.925
Neighbor list builds = 41
Dangerous builds = 0
shell          head -n 2 Temp.txt | tail -n 1 >> Tempfile.txt
shell          head -n 2 Bond.txt | tail -n 1 >> Bondfile.txt
next           myTempStr
next           myBondStr
if "${myBond} <= 0" then "jump imdinput.txt nobonds"
jump           imdinput.txt loop2here

# specifies the run length in timesteps
run            2000
WARNING: Use special bonds = 0,1,1 with bond style fene (../bond_fene.cpp:188)
Memory usage per processor = 5.5859 Mbytes
Step Temp E_pair E_mol TotEng Press 
  202000    1.0046037   0.19251251    20.592317    22.291358   0.31754014 
  202100    1.0059231   0.19379559    20.599961    22.302264   0.44754587 
  202200   0.99624808   0.19666355    20.598809    22.289471   0.38444656 
  202300   0.99413704   0.19734106    20.581385    22.269558   0.29206072 
  202400   0.97753909   0.19499106    20.602601    22.263534   0.34416133 
  202500    1.0013034   0.19091369    20.566895    22.259388   0.32507757 
  202600   0.98953235   0.18693887    20.602417    22.273283   0.13034476 
  202700   0.99251774   0.18787679    20.598358    22.274639    0.2842886 
  202800   0.98647442   0.18808982    20.586289     22.25372   0.34626256 
  202900   0.99458983   0.18495753    20.580644    22.257113    0.3982006 
  203000   0.97994927   0.18521721    20.591644    22.246417   0.34293729 
  203100   0.99481748   0.18351718    20.572717    22.248088   0.21968347 
  203200   0.97986692   0.18418459     20.61359    22.267208   0.36169728 
  203300   0.99114625   0.18665942    20.586986    22.259993   0.57992982 
  203400   0.98565317   0.18963915    20.592379    22.260128   0.21658029 
  203500   0.98290306   0.19254351    20.591948    22.258477  0.052814492 
  203600   0.98377549   0.19390359    20.582186    22.251384   0.38885427 
  203700    0.9808974   0.19447736    20.587636    22.253092   0.27369916 
  203800   0.97786569    0.1937241    20.598039    22.258195   0.32473228 
  203900   0.99037743    0.1943799     20.58911    22.268684   0.38964079 
  204000   0.98411772   0.19485835    20.599609    22.270274   0.45708658 
Loop time of 0.635469 on 4 procs (4 MPI x 1 OpenMP) for 2000 steps with 4000 atoms

Pair  time (%) = 0.174197 (27.4123)
Bond  time (%) = 0.0621479 (9.77985)
Neigh time (%) = 0.034718 (5.46336)
Comm  time (%) = 0.151616 (23.859)
Outpt time (%) = 0.0011676 (0.183738)
Other time (%) = 0.211622 (33.3017)

Nlocal:    1000 ave 1013 max 975 min
Histogram: 1 0 0 0 0 0 0 1 0 2
Nghost:    1046.75 ave 1069 max 1021 min
Histogram: 1 0 1 0 0 0 0 0 0 2
Neighs:    3081.5 ave 3151 max 2947 min
Histogram: 1 0 0 0 0 0 0 1 0 2

Total # of neighbors = 12326
Ave neighs/atom = 3.0815
Ave special neighs/atom = 5.925
Neighbor list builds = 42
Dangerous builds = 0
shell          head -n 2 Temp.txt | tail -n 1 >> Tempfile.txt
shell          head -n 2 Bond.txt | tail -n 1 >> Bondfile.txt
next           myTempStr
next           myBondStr
if "${myBond} <= 0" then "jump imdinput.txt nobonds"
jump           imdinput.txt loop2here

# specifies the run length in timesteps
run            2000
WARNING: Use special bonds = 0,1,1 with bond style fene (../bond_fene.cpp:188)
Memory usage per processor = 5.58028 Mbytes
Step Temp E_pair E_mol TotEng Press 
  204000   0.98411772   0.19485835    20.599609    22.270274   0.45708658 
  204100   0.97429223   0.19873991    20.600187        22.26   0.15708676 
  204200   0.98070742   0.20021252    20.594983    22.265889   0.35218328 
  204300   0.98227027   0.19820151     20.58424    22.255479   0.25330119 
  204400   0.98775013   0.19699196    20.582243    22.260489   0.38878398 
  204500   0.98189605   0.19676645    20.608314    22.277557   0.26899119 
  204600   0.99152221   0.19139581    20.585175    22.263482   0.47357191 
  204700   0.99519717   0.18539515    20.592983    22.270801   0.33540139 
  204800   0.99381031   0.18437202    20.610792    22.285507   0.46086505 
  204900   0.99423151   0.18708334    20.586631    22.264689   0.46984626 
  205000    1.0075243   0.18889852    20.581735    22.281542   0.28066948 
  205100    1.0071871   0.18456236    20.585932    22.280898    0.2965832 
  205200    1.0164071   0.18579158    20.601295    22.311316   0.27528803 
  205300    1.0006876   0.18850849    20.609248    22.298413    0.2895668 
  205400    1.0134212   0.18924958    20.594854    22.303855   0.51845076 
  205500   0.99965938   0.19138659    20.589671    22.280171   0.32791946 
  205600   0.98157688   0.19147888    20.615706    22.279182   0.10382673 
  205700    1.0027804   0.19461472    20.590589    22.288998   0.38342547 
  205800   0.99596708   0.19729729    20.601714    22.292588   0.45684878 
  205900   0.99765066   0.20051508    20.599662    22.296279   0.32724633 
  206000   0.99597048   0.20110378    20.595774     22.29046   0.45862547 
Loop time of 0.637704 on 4 procs (4 MPI x 1 OpenMP) for 2000 steps with 4000 atoms

Pair  time (%) = 0.172267 (27.0137)
Bond  time (%) = 0.0608255 (9.5382)
Neigh time (%) = 0.0362698 (5.68756)
Comm  time (%) = 0.156876 (24.6002)
Outpt time (%) = 0.00106418 (0.166877)
Other time (%) = 0.210401 (32.9935)

Nlocal:    1000 ave 1027 max 983 min
Histogram: 1 1 0 1 0 0 0 0 0 1
Nghost:    1018.5 ave 1070 max 983 min
Histogram: 1 0 1 1 0 0 0 0 0 1
Neighs:    3105.75 ave 3287 max 3007 min
Histogram: 1 1 1 0 0 0 0 0 0 1

Total # of neighbors = 12423
Ave neighs/atom = 3.10575
Ave special neighs/atom = 5.925
Neighbor list builds = 43
Dangerous builds = 0
shell          head -n 2 Temp.txt | tail -n 1 >> Tempfile.txt
shell          head -n 2 Bond.txt | tail -n 1 >> Bondfile.txt
next           myTempStr
next           myBondStr
if "${myBond} <= 0" then "jump imdinput.txt nobonds"
jump           imdinput.txt loop2here

# specifies the run length in timesteps
run            2000
WARNING: Use special bonds = 0,1,1 with bond style fene (../bond_fene.cpp:188)
Memory usage per processor = 5.58321 Mbytes
Step Temp E_pair E_mol TotEng Press 
  206000   0.99597048   0.20110378    20.595774     22.29046   0.45862547 
  206100   0.98683773   0.19774093    20.607538    22.285165   0.34091756 
  206200   0.98311617   0.19708196    20.603937    22.275325   0.25386859 
  206300   0.97680212   0.19633594    20.618717    22.279889    0.2632939 
  206400   0.99557503   0.19504976    20.595862    22.283901   0.49369953 
  206500    1.0010865   0.18984477    20.614598    22.305698   0.30389709 
  206600     1.006283   0.18798113    20.592021    22.289049   0.59590213 
  206700   0.99357076   0.19113301    20.593992    22.275109   0.17592246 
  206800   0.98670942   0.18953296    20.609206    22.278433   0.46861595 
  206900   0.99086477   0.19045999    20.592321    22.268707   0.13980214 
  207000    1.0052337   0.18881665    20.576813    22.273103   0.36086077 
  207100    1.0248101   0.19043261    20.578574    22.305838   0.23543699 
  207200    1.0084846   0.19313421    20.592772    22.298255   0.31216633 
  207300    1.0038313   0.19751722    20.600274    22.303161   0.17321865 
  207400   0.98167475   0.19671866    20.600537      22.2694  0.078752227 
  207500    0.9910757   0.19704075    20.584766    22.268049    0.5053215 
  207600   0.99368759   0.19554106     20.57015     22.25585   0.32728134 
  207700   0.99733753    0.1928515    20.575236     22.26372   0.38494817 
  207800    0.9878433   0.19314719    20.565672    22.240213   0.65319787 
  207900   0.97765052   0.19507607    20.589449    22.250635   0.26761316 
  208000   0.98816031   0.19580822    20.576127    22.253805   0.43958624 
Loop time of 0.626411 on 4 procs (4 MPI x 1 OpenMP) for 2000 steps with 4000 atoms

Pair  time (%) = 0.173482 (27.6945)
Bond  time (%) = 0.0624872 (9.97543)
Neigh time (%) = 0.0350104 (5.58905)
Comm  time (%) = 0.149899 (23.9298)
Outpt time (%) = 0.00112849 (0.180153)
Other time (%) = 0.204405 (32.6311)

Nlocal:    1000 ave 1022 max 973 min
Histogram: 1 0 0 1 0 0 0 0 1 1
Nghost:    1071.25 ave 1112 max 1033 min
Histogram: 1 0 0 1 0 1 0 0 0 1
Neighs:    3088 ave 3250 max 2946 min
Histogram: 1 0 0 0 2 0 0 0 0 1

Total # of neighbors = 12352
Ave neighs/atom = 3.088
Ave special neighs/atom = 5.925
Neighbor list builds = 43
Dangerous builds = 0
shell          head -n 2 Temp.txt | tail -n 1 >> Tempfile.txt
shell          head -n 2 Bond.txt | tail -n 1 >> Bondfile.txt
next           myTempStr
next           myBondStr
if "${myBond} <= 0" then "jump imdinput.txt nobonds"
jump           imdinput.txt loop2here

# specifies the run length in timesteps
run            2000
WARNING: Use special bonds = 0,1,1 with bond style fene (../bond_fene.cpp:188)
Memory usage per processor = 5.58321 Mbytes
Step Temp E_pair E_mol TotEng Press 
  208000   0.98816031   0.19580822    20.576127    22.253805   0.43958624 
  208100    0.9948018    0.1970406    20.579493    22.268363   0.26422271 
  208200   0.98918643   0.19892107    20.575564    22.257894   0.33309594 
  208300   0.99433369   0.20360057    20.577087    22.271816    0.3691323 
  208400    1.0040207   0.20468588    20.565671    22.276011   0.22934232 
  208500    0.9888804   0.20323455    20.582291    22.268475   0.27655728 
  208600   0.99984609    0.2036368    20.584935    22.287966   0.34416945 
  208700    1.0023344   0.20138596    20.594863    22.299375   0.49902808 
  208800    1.0123253   0.19794577    20.584555    22.300609   0.23711347 
  208900    1.0123624   0.19480927    20.579969    22.292942   0.23542833 
  209000    1.0007964    0.1958223    20.586627    22.283268   0.50697704 
  209100    1.0186863   0.19887891    20.592581    22.319107   0.36045599 
  209200    1.0302838   0.19712073    20.579763    22.321923   0.44823218 
  209300    1.0208355   0.19666809    20.591856    22.319395   0.21071862 
  209400    1.0290976   0.19447586    20.581874     22.31961   0.21893576 
  209500    1.0252617   0.19474397    20.584922    22.317174   0.15066941 
  209600    1.0386229   0.19281325    20.574412     22.32477   0.29816253 
  209700    1.0230588   0.19486048    20.585615     22.31468   0.26638451 
  209800    1.0189204   0.19933622    20.583856    22.311191      0.33426 
  209900    1.0225143   0.20050474    20.575078    22.308971   0.44103002 
  210000    1.0198346   0.20146059    20.581238    22.312068   0.11668872 
Loop time of 0.636833 on 4 procs (4 MPI x 1 OpenMP) for 2000 steps with 4000 atoms

Pair  time (%) = 0.178707 (28.0619)
Bond  time (%) = 0.063166 (9.91877)
Neigh time (%) = 0.0402063 (6.31348)
Comm  time (%) = 0.151118 (23.7296)
Outpt time (%) = 0.00104982 (0.16485)
Other time (%) = 0.202586 (31.8114)

Nlocal:    1000 ave 1022 max 990 min
Histogram: 1 2 0 0 0 0 0 0 0 1
Nghost:    1050.25 ave 1065 max 1036 min
Histogram: 1 0 1 0 0 0 1 0 0 1
Neighs:    3091 ave 3256 max 2942 min
Histogram: 1 0 1 0 0 0 1 0 0 1

Total # of neighbors = 12364
Ave neighs/atom = 3.091
Ave special neighs/atom = 5.925
Neighbor list builds = 49
Dangerous builds = 0
shell          head -n 2 Temp.txt | tail -n 1 >> Tempfile.txt
shell          head -n 2 Bond.txt | tail -n 1 >> Bondfile.txt
next           myTempStr
next           myBondStr
if "${myBond} <= 0" then "jump imdinput.txt nobonds"
jump           imdinput.txt loop2here

# specifies the run length in timesteps
run            2000
WARNING: Use special bonds = 0,1,1 with bond style fene (../bond_fene.cpp:188)
Memory usage per processor = 5.5837 Mbytes
Step Temp E_pair E_mol TotEng Press 
  210000    1.0198346   0.20146059    20.581238    22.312068   0.11668872 
  210100    1.0091259   0.20300294    20.596841    22.313154   0.43967268 
  210200    1.0136549   0.20424356    20.580697    22.305043   0.27008533 
  210300    1.0053696   0.20718431     20.59175    22.306612   0.25147987 
  210400    0.9941293   0.20856431    20.597919    22.297304   0.45680366 
  210500    1.0268629   0.20680301    20.572569    22.319281   0.29987193 
  210600    1.0257004   0.20200905    20.592435     22.33261   0.39375138 
  210700    1.0204723   0.19525358    20.603514    22.329093   0.30527182 
  210800    1.0330455   0.19313764    20.596617    22.338936   0.34019242 
  210900    1.0552285   0.19428508    20.594973    22.371705   0.22013725 
  211000    1.0551318   0.19766858    20.582042    22.362012   0.38939478 
  211100    1.0402493   0.19976637     20.60258     22.36233   0.10271616 
  211200    1.0297252   0.19958337    20.604189    22.347975   0.23263911 
  211300    1.0369888   0.20125924    20.602248    22.358601    0.2278293 
  211400    1.0362943   0.20202525    20.590322      22.3464   0.52441111 
  211500    1.0430318     0.198578     20.59825    22.360984   0.45750931 
  211600    1.0310921   0.19148497    20.583015    22.320751  0.062093829 
  211700    1.0211091   0.18766922    20.592409    22.311359   0.52582564 
  211800    1.0196053   0.18773014    20.592065    22.308821   0.41430607 
  211900    1.0194115    0.1881886    20.595922    22.312846   0.38124452 
  212000    1.0224051   0.18891666    20.602604    22.324745   0.24595694 
Loop time of 0.643967 on 4 procs (4 MPI x 1 OpenMP) for 2000 steps with 4000 atoms

Pair  time (%) = 0.17793 (27.6303)
Bond  time (%) = 0.0620146 (9.63008)
Neigh time (%) = 0.0448128 (6.95886)
Comm  time (%) = 0.154436 (23.9819)
Outpt time (%) = 0.00108284 (0.168151)
Other time (%) = 0.203691 (31.6307)

Nlocal:    1000 ave 1026 max 973 min
Histogram: 1 0 0 0 1 0 1 0 0 1
Nghost:    1050 ave 1084 max 1022 min
Histogram: 1 0 0 1 1 0 0 0 0 1
Neighs:    3058.25 ave 3138 max 2942 min
Histogram: 1 0 0 0 0 1 0 0 1 1

Total # of neighbors = 12233
Ave neighs/atom = 3.05825
Ave special neighs/atom = 5.925
Neighbor list builds = 54
Dangerous builds = 0
shell          head -n 2 Temp.txt | tail -n 1 >> Tempfile.txt
shell          head -n 2 Bond.txt | tail -n 1 >> Bondfile.txt
next           myTempStr
next           myBondStr
if "${myBond} <= 0" then "jump imdinput.txt nobonds"
jump           imdinput.txt loop2here

# specifies the run length in timesteps
run            2000
WARNING: Use special bonds = 0,1,1 with bond style fene (../bond_fene.cpp:188)
Memory usage per processor = 5.58346 Mbytes
Step Temp E_pair E_mol TotEng Press 
  212000    1.0224051   0.18891666    20.602604    22.324745   0.24595694 
  212100    1.0353428   0.18522422    20.597254    22.335104   0.35694691 
  212200    1.0352571   0.18689474    20.595635    22.335028   0.24409779 
  212300    1.0253185   0.18738804    20.587714    22.312695   0.28232833 
  212400    1.0089037   0.19113381    20.610326    22.314437   0.30686637 
  212500    1.0073664   0.19539935    20.593331    22.299402   0.13309938 
  212600    1.0080699   0.19727462    20.595092    22.304094   0.37274286 
  212700   0.99707722   0.19961686    20.587926    22.282784   0.31503566 
  212800   0.98742816   0.20211738    20.598666    22.281556   0.12827842 
  212900    1.0072517   0.19981561    20.597067    22.307382   0.21236284 
  213000     1.013858   0.19767101    20.594882    22.312959   0.15748975 
  213100    1.0224976   0.19707087    20.580144    22.310578   0.34224413 
  213200    1.0087675   0.19541816    20.600552    22.308743   0.36130094 
  213300    1.0131549   0.19530155    20.587839    22.302493    0.2368751 
  213400    1.0004812   0.19178099    20.602588    22.294715   0.13983547 
  213500    1.0144915   0.19022181    20.600443    22.312022   0.26507994 
  213600    1.0164554   0.19132322    20.595618    22.311244   0.44356477 
  213700    0.9994125   0.19306299    20.605945    22.297752   0.58078904 
  213800    1.0049302   0.19208848    20.591609    22.290716   0.21149662 
  213900   0.99482737   0.18859025    20.597836    22.278294   0.44743642 
  214000   0.99235323   0.19205878    20.595421    22.275637  0.068178316 
Loop time of 0.630294 on 4 procs (4 MPI x 1 OpenMP) for 2000 steps with 4000 atoms

Pair  time (%) = 0.174814 (27.7353)
Bond  time (%) = 0.0632718 (10.0385)
Neigh time (%) = 0.0392209 (6.22263)
Comm  time (%) = 0.14873 (23.5968)
Outpt time (%) = 0.00107384 (0.170371)
Other time (%) = 0.203184 (32.2364)

Nlocal:    1000 ave 1007 max 989 min
Histogram: 1 0 0 0 0 0 0 2 0 1
Nghost:    1072.25 ave 1102 max 1049 min
Histogram: 2 0 0 0 0 0 0 1 0 1
Neighs:    3071.25 ave 3228 max 2919 min
Histogram: 1 1 0 0 0 0 0 0 1 1

Total # of neighbors = 12285
Ave neighs/atom = 3.07125
Ave special neighs/atom = 5.925
Neighbor list builds = 48
Dangerous builds = 0
shell          head -n 2 Temp.txt | tail -n 1 >> Tempfile.txt
shell          head -n 2 Bond.txt | tail -n 1 >> Bondfile.txt
next           myTempStr
next           myBondStr
if "${myBond} <= 0" then "jump imdinput.txt nobonds"
jump           imdinput.txt loop2here

# specifies the run length in timesteps
run            2000
WARNING: Use special bonds = 0,1,1 with bond style fene (../bond_fene.cpp:188)
Memory usage per processor = 5.57882 Mbytes
Step Temp E_pair E_mol TotEng Press 
  214000   0.99235323   0.19205878    20.595421    22.275637  0.068178316 
  214100   0.99646582   0.19365687    20.586385    22.274367   0.41149898 
  214200    0.9976169   0.19656984    20.603698    22.296319   0.17231952 
  214300    1.0012712   0.19990885    20.597775    22.299215   0.50483855 
  214400     1.003601   0.20266533    20.597565    22.305255   0.33050147 
  214500    1.0056498   0.20159016    20.604574    22.314262  0.077907594 
  214600    1.0076102   0.19815087    20.602274    22.311462    0.2936727 
  214700    1.0146323   0.19494352    20.607746    22.324257   0.17206992 
  214800    1.0189967   0.19244891     20.60526    22.325822   0.13344044 
  214900      1.01827   0.18978161    20.606395    22.323199   0.41661007 
  215000    1.0076755   0.19271981     20.62136    22.325215 -0.081904178 
  215100    1.0093642   0.19408879    20.608956    22.316712   0.36164618 
  215200     1.011708    0.1924798    20.619175    22.328838   0.31217587 
  215300    1.0402375   0.18948757    20.585984    22.335438   0.43423131 
  215400    1.0205582   0.19166294    20.582805    22.304922   0.26906269 
  215500    1.0133259   0.19624623    20.606475     22.32233   0.24598032 
  215600    1.0189389   0.19862178    20.608117    22.334765   0.24442216 
  215700     1.026554   0.19977476    20.592656    22.331877    0.3103639 
  215800    1.0117284   0.20032736    20.600779    22.318319   0.34166149 
  215900     1.018662   0.19858063    20.604282    22.330474   0.10301886 
  216000    1.0362475    0.1995475    20.591882    22.345412   0.45922465 
Loop time of 0.627925 on 4 procs (4 MPI x 1 OpenMP) for 2000 steps with 4000 atoms

Pair  time (%) = 0.177131 (28.2089)
Bond  time (%) = 0.0617611 (9.83574)
Neigh time (%) = 0.0361248 (5.75304)
Comm  time (%) = 0.150081 (23.9011)
Outpt time (%) = 0.00105572 (0.168128)
Other time (%) = 0.201771 (32.133)

Nlocal:    1000 ave 1034 max 972 min
Histogram: 1 0 0 1 1 0 0 0 0 1
Nghost:    1089.25 ave 1109 max 1068 min
Histogram: 2 0 0 0 0 0 0 0 0 2
Neighs:    3138.75 ave 3385 max 2916 min
Histogram: 1 0 0 1 0 1 0 0 0 1

Total # of neighbors = 12555
Ave neighs/atom = 3.13875
Ave special neighs/atom = 5.925
Neighbor list builds = 44
Dangerous builds = 0
shell          head -n 2 Temp.txt | tail -n 1 >> Tempfile.txt
shell          head -n 2 Bond.txt | tail -n 1 >> Bondfile.txt
next           myTempStr
next           myBondStr
if "${myBond} <= 0" then "jump imdinput.txt nobonds"
jump           imdinput.txt loop2here

# specifies the run length in timesteps
run            2000
WARNING: Use special bonds = 0,1,1 with bond style fene (../bond_fene.cpp:188)
Memory usage per processor = 5.58419 Mbytes
Step Temp E_pair E_mol TotEng Press 
  216000    1.0362475    0.1995475    20.591882    22.345412   0.45922465 
  216100    1.0131081   0.20041297    20.608329    22.328025   0.22508166 
  216200    1.0264233   0.19698644    20.593547    22.329783   0.30958793 
  216300    1.0287183   0.19179856    20.585585    22.320075   0.12111348 
  216400    1.0238195   0.19377802    20.589093    22.318217   0.32227412 
  216500    1.0182883    0.1986263     20.58935    22.315027   0.25206682 
  216600   0.99935605   0.20085789    20.593776    22.293293   0.28344788 
  216700    1.0015605   0.19944398    20.592561     22.29397   0.39117844 
  216800    1.0017412   0.19484372    20.602929    22.300009   0.29799191 
  216900    1.0066322   0.19112121     20.58357    22.284262   0.21520238 
  217000   0.99611315   0.19033751    20.591452    22.275586   0.34579299 
  217100   0.99331677   0.19054836    20.592164    22.272315   0.31560958 
  217200    1.0141233   0.19231659     20.57608    22.289201   0.20253616 
  217300    1.0016803   0.18981571     20.58853    22.280491   0.43390416 
  217400   0.99589311   0.18702519    20.601728    22.282219   0.16729864 
  217500    1.0072839   0.18510831    20.603199    22.298855   0.44645274 
  217600    1.0241906   0.18929754    20.578176    22.303375  0.086163871 
  217700   0.99744095    0.1933754    20.596587     22.28575   0.20396035 
  217800    1.0016428   0.19148599    20.591122    22.284697   0.45218171 
  217900    1.0001778   0.19357766    20.592606    22.286075   0.35677328 
  218000   0.99565389   0.19381182    20.597615    22.284535   0.21065586 
Loop time of 0.625028 on 4 procs (4 MPI x 1 OpenMP) for 2000 steps with 4000 atoms

Pair  time (%) = 0.17658 (28.2516)
Bond  time (%) = 0.0620711 (9.93095)
Neigh time (%) = 0.0335145 (5.36208)
Comm  time (%) = 0.148999 (23.8388)
Outpt time (%) = 0.00107306 (0.171682)
Other time (%) = 0.20279 (32.4449)

Nlocal:    1000 ave 1056 max 967 min
Histogram: 2 0 0 0 1 0 0 0 0 1
Nghost:    1067 ave 1107 max 1034 min
Histogram: 2 0 0 0 0 0 0 1 0 1
Neighs:    3143.25 ave 3589 max 2859 min
Histogram: 1 1 0 0 1 0 0 0 0 1

Total # of neighbors = 12573
Ave neighs/atom = 3.14325
Ave special neighs/atom = 5.925
Neighbor list builds = 41
Dangerous builds = 0
shell          head -n 2 Temp.txt | tail -n 1 >> Tempfile.txt
shell          head -n 2 Bond.txt | tail -n 1 >> Bondfile.txt
next           myTempStr
next           myBondStr
if "${myBond} <= 0" then "jump imdinput.txt nobonds"
jump           imdinput.txt loop2here

# specifies the run length in timesteps
run            2000
WARNING: Use special bonds = 0,1,1 with bond style fene (../bond_fene.cpp:188)
Memory usage per processor = 5.59103 Mbytes
Step Temp E_pair E_mol TotEng Press 
  218000   0.99565389   0.19381182    20.597615    22.284535   0.21065586 
  218100   0.99064434   0.19188323    20.591368    22.268846   0.33970388 
  218200   0.98969461   0.19021978    20.593557    22.267948   0.38037774 
  218300   0.98180016   0.19110757    20.596917    22.260357   0.24124906 
  218400   0.98889546   0.19635095    20.584142    22.263465    0.2866772 
  218500   0.98347903   0.19905011    20.578534    22.252434   0.32009846 
  218600   0.98499237   0.20186192    20.580501    22.259482   0.19921084 
  218700   0.99621828   0.19658104    20.589035     22.27957   0.33531783 
  218800   0.99034026   0.19463947    20.600372     22.28015   0.16905863 
  218900   0.99824777   0.19379656    20.580686     22.27148   0.53060979 
  219000    1.0076616   0.19120811    20.573691    22.276013   0.23308571 
  219100   0.98949831   0.19019219    20.597319    22.271387   0.20128013 
  219200   0.98888566   0.19164128    20.584266    22.258865   0.25153523 
  219300   0.98690702   0.18842109    20.597856    22.266268   0.34425521 
  219400   0.99067474    0.1890942    20.599944    22.274678     0.136068 
  219500   0.99809271    0.1925782    20.588446    22.277789   0.20107153 
  219600   0.99331472   0.19606186    20.582031    22.267693   0.21458448 
  219700   0.98627157   0.19820603    20.595709    22.272953    0.5110668 
  219800   0.99034567   0.19891832    20.588781    22.272846   0.49934346 
  219900   0.98841945   0.19822299    20.593953    22.274434   0.33146759 
  220000   0.99621164   0.19575766    20.585286    22.274988 -0.045865109 
Loop time of 0.61809 on 4 procs (4 MPI x 1 OpenMP) for 2000 steps with 4000 atoms

Pair  time (%) = 0.177895 (28.7814)
Bond  time (%) = 0.0627716 (10.1557)
Neigh time (%) = 0.0332335 (5.37681)
Comm  time (%) = 0.140834 (22.7853)
Outpt time (%) = 0.0011149 (0.180379)
Other time (%) = 0.202241 (32.7204)

Nlocal:    1000 ave 1026 max 980 min
Histogram: 2 0 0 0 0 0 1 0 0 1
Nghost:    1068.25 ave 1094 max 1035 min
Histogram: 1 0 0 0 1 0 0 1 0 1
Neighs:    3139.25 ave 3367 max 3028 min
Histogram: 1 2 0 0 0 0 0 0 0 1

Total # of neighbors = 12557
Ave neighs/atom = 3.13925
Ave special neighs/atom = 5.925
Neighbor list builds = 41
Dangerous builds = 0
shell          head -n 2 Temp.txt | tail -n 1 >> Tempfile.txt
shell          head -n 2 Bond.txt | tail -n 1 >> Bondfile.txt
next           myTempStr
next           myBondStr
if "${myBond} <= 0" then "jump imdinput.txt nobonds"
jump           imdinput.txt loop2here

# specifies the run length in timesteps
run            2000
WARNING: Use special bonds = 0,1,1 with bond style fene (../bond_fene.cpp:188)
Memory usage per processor = 5.58419 Mbytes
Step Temp E_pair E_mol TotEng Press 
  220000   0.99621164   0.19575766    20.585286    22.274988 -0.045865109 
  220100    1.0059384   0.19048608    20.581758    22.280774   0.24202006 
  220200   0.99442515   0.18941803    20.598191    22.278873   0.47309965 
  220300   0.99046288   0.19165384    20.580258    22.257234   0.32859418 
  220400   0.98004309   0.19941685    20.578061    22.247175   0.23001688 
  220500    1.0014647   0.20235713    20.566801    22.270979   0.33547316 
  220600   0.99900289   0.20430073    20.572973    22.275403   0.13353391 
  220700   0.99062844   0.20031368    20.578269    22.264154    0.2636568 
  220800   0.99514556   0.19761984    20.569794    22.259759   0.35619194 
  220900   0.99884421   0.19457626    20.590148    22.282616   0.24699236 
  221000    1.0084662   0.19211912    20.587649    22.292089   0.38517122 
  221100    1.0041395   0.19428585    20.590501     22.29062   0.35231283 
  221200    1.0043896   0.19261617    20.592515    22.291339   0.13518288 
  221300   0.99946699   0.19118977    20.592544    22.282559   0.60210698 
  221400    0.9910493   0.19404337    20.598922    22.279168    0.1097682 
  221500    1.0148804   0.20023573    20.581626    22.303802   0.37467225 
  221600    1.0061071   0.20155363    20.583916    22.294253   0.32461793 
  221700    1.0029948   0.20050185    20.584852     22.28947    0.2592142 
  221800   0.99402995   0.20212111    20.599483    22.292276   0.33294179 
  221900    1.0065437   0.20229607    20.598802    22.310536   0.25037865 
  222000     1.002187   0.20068044    20.595935     22.29952   0.42432859 
Loop time of 0.620312 on 4 procs (4 MPI x 1 OpenMP) for 2000 steps with 4000 atoms

Pair  time (%) = 0.175742 (28.3312)
Bond  time (%) = 0.0627997 (10.1239)
Neigh time (%) = 0.0354435 (5.71382)
Comm  time (%) = 0.142948 (23.0445)
Outpt time (%) = 0.00114393 (0.184412)
Other time (%) = 0.202235 (32.6022)

Nlocal:    1000 ave 1029 max 986 min
Histogram: 1 2 0 0 0 0 0 0 0 1
Nghost:    1109.75 ave 1146 max 1091 min
Histogram: 1 1 1 0 0 0 0 0 0 1
Neighs:    3093.75 ave 3259 max 2955 min
Histogram: 1 0 0 1 1 0 0 0 0 1

Total # of neighbors = 12375
Ave neighs/atom = 3.09375
Ave special neighs/atom = 5.925
Neighbor list builds = 44
Dangerous builds = 0
shell          head -n 2 Temp.txt | tail -n 1 >> Tempfile.txt
shell          head -n 2 Bond.txt | tail -n 1 >> Bondfile.txt
next           myTempStr
next           myBondStr
if "${myBond} <= 0" then "jump imdinput.txt nobonds"
jump           imdinput.txt loop2here

# specifies the run length in timesteps
run            2000
WARNING: Use special bonds = 0,1,1 with bond style fene (../bond_fene.cpp:188)
Memory usage per processor = 5.58443 Mbytes
Step Temp E_pair E_mol TotEng Press 
  222000     1.002187   0.20068044    20.595935     22.29952   0.42432859 
  222100    1.0171848   0.19781726    20.602877     22.32609   0.39310366 
  222200    1.0194928   0.19553012    20.611501    22.335888   0.20044011 
  222300    1.0138948   0.19658099    20.606614    22.323657   0.51669713 
  222400     1.014207   0.19638984    20.605634    22.322954   0.23436244 
  222500    1.0053712   0.19625021    20.599334    22.303264   0.32380551 
  222600   0.99876343   0.19390308    20.590374    22.282047   0.27927785 
  222700    1.0027977   0.19199815    20.595178    22.290997   0.35142298 
  222800   0.98902321    0.1885013    20.593676    22.265341   0.40807244 
  222900   0.99720216   0.18778015    20.574673    22.257882   0.32646193 
  223000   0.98214886   0.18708221    20.611561    22.271498   0.30101532 
  223100   0.99187085   0.18644539     20.60066     22.27454   0.34514823 
  223200    1.0046073   0.18356321    20.590343     22.28044   0.33846666 
  223300    1.0037025   0.18535832    20.598695    22.289231   0.31484338 
  223400    1.0112929     0.188069    20.587928    22.292557   0.29989442 
  223500    1.0078067   0.18604038    20.608418     22.30579   0.19102658 
  223600    1.0119164   0.18272308    20.601435    22.301653   0.54402628 
  223700    1.0103445   0.18191347    20.598926    22.295978   0.12560813 
  223800    1.0093257   0.18499551    20.592188    22.290794   0.30833383 
  223900   0.98771604   0.18569304     20.60934    22.276237   0.27961832 
  224000    1.0033624   0.18971178    20.579013    22.273392   0.21168739 
Loop time of 0.619453 on 4 procs (4 MPI x 1 OpenMP) for 2000 steps with 4000 atoms

Pair  time (%) = 0.175036 (28.2565)
Bond  time (%) = 0.0637081 (10.2846)
Neigh time (%) = 0.0330795 (5.34011)
Comm  time (%) = 0.143293 (23.1322)
Outpt time (%) = 0.00115579 (0.186583)
Other time (%) = 0.203181 (32.8001)

Nlocal:    1000 ave 1004 max 991 min
Histogram: 1 0 0 0 0 0 0 0 1 2
Nghost:    1097 ave 1145 max 1068 min
Histogram: 1 1 0 1 0 0 0 0 0 1
Neighs:    3062 ave 3130 max 3007 min
Histogram: 1 1 0 0 0 0 1 0 0 1

Total # of neighbors = 12248
Ave neighs/atom = 3.062
Ave special neighs/atom = 5.925
Neighbor list builds = 41
Dangerous builds = 0
shell          head -n 2 Temp.txt | tail -n 1 >> Tempfile.txt
shell          head -n 2 Bond.txt | tail -n 1 >> Bondfile.txt
next           myTempStr
next           myBondStr
if "${myBond} <= 0" then "jump imdinput.txt nobonds"
jump           imdinput.txt loop2here

# specifies the run length in timesteps
run            2000
WARNING: Use special bonds = 0,1,1 with bond style fene (../bond_fene.cpp:188)
Memory usage per processor = 5.57809 Mbytes
Step Temp E_pair E_mol TotEng Press 
  224000    1.0033624   0.18971178    20.579013    22.273392   0.21168739 
  224100   0.99353545   0.19037131    20.583758    22.264059   0.38177637 
  224200   0.98519062   0.18982052    20.596252    22.263489   0.49724654 
  224300   0.96938633   0.18987013    20.610767    22.254353   0.36605803 
  224400   0.99354625   0.19276039    20.580325    22.263032   0.10404984 
  224500    0.9935292   0.19203826    20.593177    22.275136   0.51664194 
  224600    1.0066525   0.18900065    20.587925    22.286527  0.057250948 
  224700   0.99766652    0.1912035    20.602162    22.289491   0.31829128 
  224800   0.98982539   0.19030598    20.605034    22.279707   0.38877223 
  224900    1.0027586   0.18925566    20.584613     22.27763   0.48494344 
  225000   0.98688938   0.18714193     20.59555    22.262656   0.21380859 
  225100     0.983101   0.18565152    20.605378    22.265312    0.5264501 
  225200   0.97422525   0.18571793    20.596981    22.243671   0.28926336 
  225300   0.98472385   0.18568925    20.582711    22.245117   0.18739555 
  225400   0.97585232   0.18644104    20.599172    22.249025    0.2288747 
  225500   0.98286166   0.18495413    20.578466    22.237344   0.40618829 
  225600   0.99067089   0.18149396    20.594912    22.262041   0.55425243 
  225700    1.0115342   0.17916222    20.580569    22.276653   0.39372619 
  225800    1.0176274   0.17291938     20.60016    22.299139   0.38967358 
  225900    0.9859995   0.17063427    20.606655    22.255919   0.36303598 
  226000   0.99956146   0.17314919    20.584741    22.256857   0.19754347 
Loop time of 0.643486 on 4 procs (4 MPI x 1 OpenMP) for 2000 steps with 4000 atoms

Pair  time (%) = 0.174426 (27.1065)
Bond  time (%) = 0.0619625 (9.6292)
Neigh time (%) = 0.0348717 (5.41919)
Comm  time (%) = 0.155488 (24.1634)
Outpt time (%) = 0.00130492 (0.20279)
Other time (%) = 0.215432 (33.479)

Nlocal:    1000 ave 1037 max 964 min
Histogram: 2 0 0 0 0 0 0 0 0 2
Nghost:    1042 ave 1067 max 1017 min
Histogram: 1 0 0 0 0 2 0 0 0 1
Neighs:    3018.75 ave 3260 max 2790 min
Histogram: 2 0 0 0 0 0 0 0 1 1

Total # of neighbors = 12075
Ave neighs/atom = 3.01875
Ave special neighs/atom = 5.925
Neighbor list builds = 42
Dangerous builds = 0
shell          head -n 2 Temp.txt | tail -n 1 >> Tempfile.txt
shell          head -n 2 Bond.txt | tail -n 1 >> Bondfile.txt
next           myTempStr
next           myBondStr
if "${myBond} <= 0" then "jump imdinput.txt nobonds"
jump           imdinput.txt loop2here

# specifies the run length in timesteps
run            2000
WARNING: Use special bonds = 0,1,1 with bond style fene (../bond_fene.cpp:188)
Memory usage per processor = 5.58663 Mbytes
Step Temp E_pair E_mol TotEng Press 
  226000   0.99956146   0.17314919    20.584741    22.256857   0.19754347 
  226100   0.99093564   0.17850252    20.601535    22.266069   0.69666282 
  226200   0.99501141   0.17982953    20.592398    22.264372   0.18276247 
  226300   0.99951544    0.1790479    20.595515    22.273461   0.13230107 
  226400    1.0107705   0.18350077    20.578816    22.278094   0.36021984 
  226500    1.0120781   0.18361024    20.581117    22.282465   0.09050134 
  226600   0.99247772   0.18852709      20.6002    22.277072   0.10781121 
  226700    1.0050806   0.18975495    20.589392    22.286391   0.52903756 
  226800   0.99588669   0.19128619    20.603308    22.288051   0.31285386 
  226900    1.0034062   0.18681275    20.601689    22.293235   0.38142297 
  227000   0.99705918   0.18885822    20.612252    22.296325   0.46374101 
  227100    1.0082962   0.19038929    20.603984    22.306439   0.20389966 
  227200    1.0120227   0.19341763    20.581321    22.292393   0.38001101 
  227300    1.0055886   0.19756319    20.592711     22.29828   0.48848031 
  227400    1.0032161    0.2003985    20.584338    22.289184   0.35375352 
  227500   0.98704701   0.19830021    20.617681    22.296182   0.22889179 
  227600   0.98923725    0.1960068    20.608479    22.287971   0.17083549 
  227700   0.99895763   0.19405629    20.608119    22.300237   0.28652489 
  227800    1.0009424   0.19468972     20.58951    22.285238   0.55508119 
  227900   0.99244133   0.19530601    20.597199    22.280795   0.38223619 
  228000   0.98997948   0.19186635    20.593582    22.270046   0.55097278 
Loop time of 0.657543 on 4 procs (4 MPI x 1 OpenMP) for 2000 steps with 4000 atoms

Pair  time (%) = 0.174794 (26.583)
Bond  time (%) = 0.0622877 (9.4728)
Neigh time (%) = 0.0350931 (5.337)
Comm  time (%) = 0.156653 (23.824)
Outpt time (%) = 0.00141686 (0.215478)
Other time (%) = 0.227298 (34.5678)

Nlocal:    1000 ave 1016 max 963 min
Histogram: 1 0 0 0 0 0 0 0 1 2
Nghost:    1048.25 ave 1058 max 1033 min
Histogram: 1 0 0 0 1 0 0 0 0 2
Neighs:    3105 ave 3256 max 2912 min
Histogram: 1 0 0 0 0 1 1 0 0 1

Total # of neighbors = 12420
Ave neighs/atom = 3.105
Ave special neighs/atom = 5.925
Neighbor list builds = 42
Dangerous builds = 0
shell          head -n 2 Temp.txt | tail -n 1 >> Tempfile.txt
shell          head -n 2 Bond.txt | tail -n 1 >> Bondfile.txt
next           myTempStr
next           myBondStr
if "${myBond} <= 0" then "jump imdinput.txt nobonds"
jump           imdinput.txt loop2here

# specifies the run length in timesteps
run            2000
WARNING: Use special bonds = 0,1,1 with bond style fene (../bond_fene.cpp:188)
Memory usage per processor = 5.58102 Mbytes
Step Temp E_pair E_mol TotEng Press 
  228000   0.98997948   0.19186635    20.593582    22.270046   0.55097278 
  228100   0.98751206   0.19046298    20.585133    22.256493    0.3529274 
  228200   0.98088638   0.18981579    20.595156    22.255934   0.28177151 
  228300   0.98752942   0.18616629    20.592185    22.259276   0.40464694 
  228400   0.97730352   0.18656614    20.588865     22.24102    0.3745087 
  228500   0.97979349   0.18980252    20.579127    22.238252   0.26424175 
  228600   0.99012315   0.18619344     20.58703    22.258037   0.24028648 
  228700   0.99213748   0.18226122    20.572017    22.242113   0.45577412 
  228800   0.99925015   0.18166938    20.566605    22.246775   0.47049675 
  228900   0.98320048   0.18251636    20.600266    22.257214   0.37657337 
  229000   0.99282666   0.18040853    20.585449    22.254725   0.39541609 
  229100   0.99827714   0.18105548    20.581675    22.259771   0.38658972 
  229200    1.0025394   0.17922981    20.576286    22.258949   0.21103597 
  229300   0.99331236   0.17728584    20.592581    22.259462    0.4133691 
  229400   0.98261899   0.17613746    20.587211    22.236909   0.29511722 
  229500   0.98950649   0.17859888    20.578084    22.240571   0.26383857 
  229600   0.98993824   0.18263405    20.578515    22.245685   0.37080434 
  229700   0.98132742   0.18438127    20.580051    22.236055   0.43317238 
  229800   0.97447002   0.18640167    20.574001    22.221742   0.16677352 
  229900    0.9829414   0.18627757    20.579822    22.240143   0.47151829 
  230000   0.99643069   0.18582484    20.592034    22.272131   0.30184233 
Loop time of 0.646941 on 4 procs (4 MPI x 1 OpenMP) for 2000 steps with 4000 atoms

Pair  time (%) = 0.170902 (26.4169)
Bond  time (%) = 0.0642103 (9.92521)
Neigh time (%) = 0.035598 (5.50251)
Comm  time (%) = 0.151302 (23.3873)
Outpt time (%) = 0.00142765 (0.220677)
Other time (%) = 0.223501 (34.5474)

Nlocal:    1000 ave 1062 max 969 min
Histogram: 1 1 1 0 0 0 0 0 0 1
Nghost:    1080.25 ave 1139 max 1028 min
Histogram: 1 0 0 0 2 0 0 0 0 1
Neighs:    3029.75 ave 3380 max 2893 min
Histogram: 3 0 0 0 0 0 0 0 0 1

Total # of neighbors = 12119
Ave neighs/atom = 3.02975
Ave special neighs/atom = 5.925
Neighbor list builds = 43
Dangerous builds = 0
shell          head -n 2 Temp.txt | tail -n 1 >> Tempfile.txt
shell          head -n 2 Bond.txt | tail -n 1 >> Bondfile.txt
next           myTempStr
next           myBondStr
if "${myBond} <= 0" then "jump imdinput.txt nobonds"
jump           imdinput.txt loop2here

# specifies the run length in timesteps
run            2000
WARNING: Use special bonds = 0,1,1 with bond style fene (../bond_fene.cpp:188)
Memory usage per processor = 5.59225 Mbytes
Step Temp E_pair E_mol TotEng Press 
  230000   0.99643069   0.18582484    20.592034    22.272131   0.30184233 
  230100    1.0053263   0.18538408    20.573808    22.266804   0.15328548 
  230200    1.0009098   0.18513036    20.585983    22.272102   0.30647038 
  230300    1.0005231   0.18954437    20.587693    22.277647   0.23175379 
  230400   0.99342654   0.19535099    20.600208    22.285326    0.2975919 
  230500    1.0031402     0.195555    20.586036    22.285925   0.56550761 
  230600    1.0155261   0.19531731    20.583236    22.301462   0.30214436 
  230700    1.0137697   0.19501614    20.573573    22.288863   0.44836024 
  230800    1.0079793    0.1958873    20.591018    22.298496   0.18699716 
  230900    1.0088169   0.19513855    20.593514      22.3015   0.47679338 
  231000    1.0085884   0.19379345    20.605076    22.311374     0.361179 
  231100    1.0313633   0.19296505     20.58648    22.326103   0.61155573 
  231200    1.0129587   0.19473336    20.590273    22.304064  0.023693592 
  231300   0.99100829    0.1971464    20.600914    22.284202   0.48797751 
  231400   0.98789518   0.19808373    20.589507    22.269063   0.34750842 
  231500   0.99361776   0.19699034     20.57899    22.266035   0.12926727 
  231600   0.98586746   0.19470456    20.584767    22.257903   0.27797445 
  231700   0.99837734   0.19488476    20.575832    22.267908   0.41702248 
  231800    0.9886476   0.19452607    20.587966    22.265093   0.46264853 
  231900   0.98470514   0.19392327    20.591995    22.262606   0.33170149 
  232000   0.98869999   0.19454075    20.590733    22.267953   0.10047774 
Loop time of 0.643903 on 4 procs (4 MPI x 1 OpenMP) for 2000 steps with 4000 atoms

Pair  time (%) = 0.172319 (26.7617)
Bond  time (%) = 0.0629054 (9.7694)
Neigh time (%) = 0.0345623 (5.36762)
Comm  time (%) = 0.15126 (23.4911)
Outpt time (%) = 0.00145912 (0.226606)
Other time (%) = 0.221397 (34.3836)

Nlocal:    1000 ave 1044 max 952 min
Histogram: 1 0 0 1 0 0 0 1 0 1
Nghost:    1071.75 ave 1099 max 1059 min
Histogram: 2 0 1 0 0 0 0 0 0 1
Neighs:    3075.25 ave 3335 max 2842 min
Histogram: 1 1 0 0 0 0 0 1 0 1

Total # of neighbors = 12301
Ave neighs/atom = 3.07525
Ave special neighs/atom = 5.925
Neighbor list builds = 42
Dangerous builds = 0
shell          head -n 2 Temp.txt | tail -n 1 >> Tempfile.txt
shell          head -n 2 Bond.txt | tail -n 1 >> Bondfile.txt
next           myTempStr
next           myBondStr
if "${myBond} <= 0" then "jump imdinput.txt nobonds"
jump           imdinput.txt loop2here

# specifies the run length in timesteps
run            2000
WARNING: Use special bonds = 0,1,1 with bond style fene (../bond_fene.cpp:188)
Memory usage per processor = 5.58663 Mbytes
Step Temp E_pair E_mol TotEng Press 
  232000   0.98869999   0.19454075    20.590733    22.267953   0.10047774 
  232100   0.99727146   0.19370316    20.572429    22.261665   0.42210091 
  232200   0.98344898   0.19622458    20.607709    22.278739   0.61263822 
  232300   0.99865689   0.19918772    20.604162    22.300961   0.23641941 
  232400   0.99731112   0.19642864     20.59391    22.285931   0.35761013 
  232500     1.024765   0.19529338    20.574982    22.307038   0.39746785 
  232600    1.0170115   0.19537355    20.580029    22.300539   0.24357849 
  232700    1.0188079   0.19775304    20.590697     22.31628   0.35516958 
  232800    1.0160359   0.20019415    20.593727    22.317594   0.13523138 
  232900    1.0201968   0.20019448    20.579397    22.309504   0.38322836 
  233000    1.0060722   0.20264451    20.603566    22.314941   0.13770722 
  233100    1.0147257   0.20430945    20.588999    22.315017   0.31564867 
  233200    1.0188864   0.20259132    20.572614    22.303153   0.54681196 
  233300    1.0167294   0.20477538    20.591529    22.321017   0.23030102 
  233400   0.99771007   0.20966989    20.611755    22.317616   0.11700143 
  233500    1.0004475   0.21191326    20.613762    22.325971   0.38674744 
  233600    1.0015503   0.20727642    20.615793    22.325019   0.34424812 
  233700    1.0097876   0.20405106    20.606665    22.325019   0.19355221 
  233800    1.0172616   0.20039079    20.615886    22.341788   0.53470957 
  233900    1.0153626   0.20095367      20.6259    22.349517   0.30349402 
  234000    1.0236108   0.19877898    20.610993    22.344804   0.43021151 
Loop time of 0.653241 on 4 procs (4 MPI x 1 OpenMP) for 2000 steps with 4000 atoms

Pair  time (%) = 0.181671 (27.8107)
Bond  time (%) = 0.0624056 (9.55322)
Neigh time (%) = 0.0342413 (5.24176)
Comm  time (%) = 0.153118 (23.4397)
Outpt time (%) = 0.00142312 (0.217855)
Other time (%) = 0.220382 (33.7368)

Nlocal:    1000 ave 1029 max 951 min
Histogram: 1 0 0 0 0 1 0 0 0 2
Nghost:    1082.25 ave 1116 max 1061 min
Histogram: 1 0 1 1 0 0 0 0 0 1
Neighs:    3130.75 ave 3267 max 2905 min
Histogram: 1 0 0 0 0 1 0 0 0 2

Total # of neighbors = 12523
Ave neighs/atom = 3.13075
Ave special neighs/atom = 5.925
Neighbor list builds = 41
Dangerous builds = 0
shell          head -n 2 Temp.txt | tail -n 1 >> Tempfile.txt
shell          head -n 2 Bond.txt | tail -n 1 >> Bondfile.txt
next           myTempStr
next           myBondStr
if "${myBond} <= 0" then "jump imdinput.txt nobonds"
jump           imdinput.txt loop2here

# specifies the run length in timesteps
run            2000
WARNING: Use special bonds = 0,1,1 with bond style fene (../bond_fene.cpp:188)
Memory usage per processor = 5.58321 Mbytes
Step Temp E_pair E_mol TotEng Press 
  234000    1.0236108   0.19877898    20.610993    22.344804   0.43021151 
  234100    1.0198672   0.20123282    20.608108    22.338759   0.35104789 
  234200    1.0239106   0.20355697    20.605502    22.344541   0.26090818 
  234300    1.0348734   0.20373893    20.593328    22.348989   0.44027601 
  234400     1.019747    0.2018592    20.617899    22.348997   0.29367454 
  234500    1.0243758   0.19947334    20.614672    22.350325   0.42318834 
  234600    1.0164775   0.19845122    20.606734    22.329521   0.30811334 
  234700    1.0070492   0.19676415    20.618638    22.325598   0.29860413 
  234800    1.0171942   0.19738909    20.602264    22.325063   0.35000881 
  234900      1.00744   0.19823953    20.614976    22.323997   0.34237865 
  235000    1.0082567   0.19953413    20.607323    22.318864   0.37237123 
  235100     1.015993   0.19809037    20.603049    22.324748   0.28301219 
  235200    1.0300751   0.19682302    20.605261     22.34681   0.38968488 
  235300    1.0138638   0.19687953    20.610359    22.327655   0.37238487 
  235400    1.0123355   0.19636211     20.61342    22.327906   0.29412076 
  235500    1.0053657   0.19621879    20.599635    22.303525   0.50320245 
  235600    1.0103418   0.19488469    20.576778    22.286797   0.38134134 
  235700    1.0066291   0.19046926    20.586229    22.286265   0.17019407 
  235800    1.0089925   0.18855684    20.584575    22.286242   0.15186763 
  235900    1.0107535   0.19323989    20.593061    22.302052   0.39811918 
  236000   0.98506695   0.20050143    20.611697     22.28943   0.31735817 
Loop time of 0.651155 on 4 procs (4 MPI x 1 OpenMP) for 2000 steps with 4000 atoms

Pair  time (%) = 0.179731 (27.6019)
Bond  time (%) = 0.06442 (9.89319)
Neigh time (%) = 0.0346568 (5.32235)
Comm  time (%) = 0.148785 (22.8495)
Outpt time (%) = 0.00152922 (0.234847)
Other time (%) = 0.222033 (34.0983)

Nlocal:    1000 ave 1020 max 979 min
Histogram: 1 0 0 1 0 0 0 1 0 1
Nghost:    1107.75 ave 1154 max 1070 min
Histogram: 1 0 1 0 0 1 0 0 0 1
Neighs:    3060 ave 3301 max 2857 min
Histogram: 1 0 0 1 0 1 0 0 0 1

Total # of neighbors = 12240
Ave neighs/atom = 3.06
Ave special neighs/atom = 5.925
Neighbor list builds = 42
Dangerous builds = 0
shell          head -n 2 Temp.txt | tail -n 1 >> Tempfile.txt
shell          head -n 2 Bond.txt | tail -n 1 >> Bondfile.txt
next           myTempStr
next           myBondStr
if "${myBond} <= 0" then "jump imdinput.txt nobonds"
jump           imdinput.txt loop2here

# specifies the run length in timesteps
run            2000
WARNING: Use special bonds = 0,1,1 with bond style fene (../bond_fene.cpp:188)
Memory usage per processor = 5.58175 Mbytes
Step Temp E_pair E_mol TotEng Press 
  236000   0.98506695   0.20050143    20.611697     22.28943   0.31735817 
  236100    1.0133814    0.1962121    20.582664    22.298568   0.23904641 
  236200    1.0151058   0.19052109    20.599945    22.312745   0.29125113 
  236300    1.0097557   0.18872113    20.614352    22.317328   0.31503003 
  236400    1.0074077   0.18836726    20.605825    22.304926   0.22153175 
  236500    1.0076623   0.18387845    20.598963    22.293957   0.49790935 
  236600    1.0032322    0.1831757    20.598579    22.286226   0.45456731 
  236700    1.0192474   0.18464498    20.581398    22.294532   0.39824707 
  236800    1.0105644   0.18686326    20.598711    22.301042   0.41054143 
  236900    1.0139114   0.18638269    20.598307    22.305177   0.10545367 
  237000   0.99470978   0.18135997     20.59476    22.267812   0.34181853 
  237100   0.99415366   0.18253006    20.608056    22.281444 -0.029967946 
  237200   0.98852028    0.1824662    20.605841    22.270717    0.5231208 
  237300   0.98991219   0.18416293    20.601057    22.269717   0.26997235 
  237400    1.0027815   0.18270736     20.59317    22.279674   0.42468495 
  237500    1.0197784   0.18080742    20.578933    22.289025  0.020117061 
  237600    1.0046876    0.1795144    20.605479    22.291648   0.37750881 
  237700   0.98415651   0.17811077     20.61488    22.268856   0.34561909 
  237800   0.99628805    0.1787633    20.602279    22.275101   0.40796099 
  237900    1.0082931   0.18399651    20.592057    22.288115  0.064933029 
  238000   0.99695887   0.18855105    20.597466    22.281082   0.24566371 
Loop time of 0.485849 on 4 procs (4 MPI x 1 OpenMP) for 2000 steps with 4000 atoms

Pair  time (%) = 0.138385 (28.4831)
Bond  time (%) = 0.0464134 (9.55304)
Neigh time (%) = 0.0270765 (5.57302)
Comm  time (%) = 0.104804 (21.5714)
Outpt time (%) = 0.00112092 (0.230714)
Other time (%) = 0.168049 (34.5887)

Nlocal:    1000 ave 1019 max 971 min
Histogram: 1 0 0 0 1 0 0 0 0 2
Nghost:    1075.25 ave 1124 max 1042 min
Histogram: 1 1 0 0 1 0 0 0 0 1
Neighs:    3125.75 ave 3342 max 2884 min
Histogram: 1 0 0 0 1 0 0 1 0 1

Total # of neighbors = 12503
Ave neighs/atom = 3.12575
Ave special neighs/atom = 5.925
Neighbor list builds = 41
Dangerous builds = 0
shell          head -n 2 Temp.txt | tail -n 1 >> Tempfile.txt
shell          head -n 2 Bond.txt | tail -n 1 >> Bondfile.txt
next           myTempStr
next           myBondStr
if "${myBond} <= 0" then "jump imdinput.txt nobonds"
jump           imdinput.txt loop2here

# specifies the run length in timesteps
run            2000
WARNING: Use special bonds = 0,1,1 with bond style fene (../bond_fene.cpp:188)
Memory usage per processor = 5.58224 Mbytes
Step Temp E_pair E_mol TotEng Press 
  238000   0.99695887   0.18855105    20.597466    22.281082   0.24566371 
  238100   0.98682862   0.19380313    20.599339    22.273015   0.24414107 
  238200   0.99798464    0.1957398    20.593129    22.285472   0.19247304 
  238300   0.99768231   0.19908628    20.604802    22.300038   0.55728827 
  238400   0.99210447   0.19913195    20.595538    22.282455   0.57870211 
  238500     1.000317    0.1944097    20.589196    22.283706   0.25429951 
  238600    0.9955243   0.18996213    20.605264    22.288139   0.40650779 
  238700    1.0151472   0.18848295    20.593134    22.303957   0.25759724 
  238800    1.0170898    0.1880951    20.593718    22.307066   0.18170879 
  238900    1.0150672   0.18799801    20.598913    22.309132   0.37657832 
  239000    1.0047208   0.18765512    20.614417    22.308776   0.51262896 
  239100    1.0173296   0.18837958     20.59231    22.306302   0.24715085 
  239200    1.0054232   0.18706123    20.602931     22.29775   0.17981156 
  239300   0.99844691   0.18717337    20.617558    22.302028   0.42721804 
  239400   0.99645357   0.19054135    20.616238    22.301086   0.22389297 
  239500    1.0010247   0.19418213    20.599581    22.294925   0.49673588 
  239600    1.0067572   0.19682242    20.596475    22.303056   0.63095708 
  239700     1.003376    0.1965575    20.593275     22.29452    0.2623999 
  239800   0.98586504   0.19290403    20.628094    22.299426    0.1823056 
  239900    1.0036045   0.19332473    20.591322    22.289677   0.56947618 
  240000    0.9991818   0.19686394    20.580374    22.275636   0.26796176 
Loop time of 0.462512 on 4 procs (4 MPI x 1 OpenMP) for 2000 steps with 4000 atoms

Pair  time (%) = 0.138636 (29.9745)
Bond  time (%) = 0.0453057 (9.79556)
Neigh time (%) = 0.0272799 (5.89819)
Comm  time (%) = 0.0904359 (19.5532)
Outpt time (%) = 0.00105625 (0.228373)
Other time (%) = 0.159799 (34.5502)

Nlocal:    1000 ave 1050 max 974 min
Histogram: 2 0 1 0 0 0 0 0 0 1
Nghost:    1069.5 ave 1084 max 1063 min
Histogram: 2 1 0 0 0 0 0 0 0 1
Neighs:    3201.5 ave 3550 max 2988 min
Histogram: 2 0 0 0 1 0 0 0 0 1

Total # of neighbors = 12806
Ave neighs/atom = 3.2015
Ave special neighs/atom = 5.925
Neighbor list builds = 43
Dangerous builds = 0
shell          head -n 2 Temp.txt | tail -n 1 >> Tempfile.txt
shell          head -n 2 Bond.txt | tail -n 1 >> Bondfile.txt
next           myTempStr
next           myBondStr
if "${myBond} <= 0" then "jump imdinput.txt nobonds"
jump           imdinput.txt loop2here

# specifies the run length in timesteps
run            2000
WARNING: Use special bonds = 0,1,1 with bond style fene (../bond_fene.cpp:188)
Memory usage per processor = 5.58932 Mbytes
Step Temp E_pair E_mol TotEng Press 
  240000    0.9991818   0.19686394    20.580374    22.275636   0.26796176 
  240100    1.0028342   0.20372998    20.574949    22.282555   0.44334504 
  240200   0.99541224   0.20649738    20.589999    22.289241   0.17920169 
  240300   0.98246406   0.20683398    20.593414    22.273576   0.35796428 
  240400   0.98603603   0.20455054    20.589473    22.272708   0.51217865 
  240500   0.99084559   0.19857141      20.5953    22.279769   0.34012511 
  240600    1.0024346   0.19421402    20.585111    22.282601   0.44649967 
  240700     1.014435   0.19238216    20.570283    22.283938   0.33928999 
  240800   0.98770696   0.19498007    20.584426    22.260597   0.17713163 
  240900   0.99901797   0.19241097    20.591654    22.282217   0.31234984 
  241000    1.0066907   0.18905499    20.584236     22.28295   0.25316364 
  241100   0.99439056   0.19012507    20.603313    22.284651   0.28546483 
  241200    1.0001121   0.19234797    20.592477    22.284618   0.43849625 
  241300    1.0137379   0.19567574    20.578442    22.294345   0.14524091 
  241400    1.0055902   0.19703279    20.605184    22.310225   0.38706102 
  241500    1.0160575   0.19603247    20.586109    22.305846   0.49733519 
  241600    1.0086769    0.1986924    20.605656    22.316985   0.18212162 
  241700   0.99970574   0.19851261    20.609895    22.307591   0.11401364 
  241800   0.99407704   0.19747029     20.60207    22.290283   0.31369106 
  241900     1.004482   0.19572431    20.594662    22.296733   0.44821918 
  242000    1.0066326   0.19429684    20.600509    22.304378   0.32399232 
Loop time of 0.44835 on 4 procs (4 MPI x 1 OpenMP) for 2000 steps with 4000 atoms

Pair  time (%) = 0.137219 (30.6053)
Bond  time (%) = 0.0446537 (9.95957)
Neigh time (%) = 0.0257231 (5.73728)
Comm  time (%) = 0.0835842 (18.6426)
Outpt time (%) = 0.00103265 (0.230323)
Other time (%) = 0.156137 (34.8249)

Nlocal:    1000 ave 1038 max 977 min
Histogram: 1 1 0 1 0 0 0 0 0 1
Nghost:    1093.75 ave 1104 max 1088 min
Histogram: 2 0 0 1 0 0 0 0 0 1
Neighs:    3066.75 ave 3361 max 2885 min
Histogram: 1 1 0 0 1 0 0 0 0 1

Total # of neighbors = 12267
Ave neighs/atom = 3.06675
Ave special neighs/atom = 5.925
Neighbor list builds = 41
Dangerous builds = 0
shell          head -n 2 Temp.txt | tail -n 1 >> Tempfile.txt
shell          head -n 2 Bond.txt | tail -n 1 >> Bondfile.txt
next           myTempStr
next           myBondStr
if "${myBond} <= 0" then "jump imdinput.txt nobonds"
jump           imdinput.txt loop2here

# specifies the run length in timesteps
run            2000
WARNING: Use special bonds = 0,1,1 with bond style fene (../bond_fene.cpp:188)
Memory usage per processor = 5.58761 Mbytes
Step Temp E_pair E_mol TotEng Press 
  242000    1.0066326   0.19429684    20.600509    22.304378   0.32399232 
  242100   0.99958696   0.19274265    20.604909    22.296657   0.26432283 
  242200    1.0051792   0.19270837    20.593056    22.293156   0.16230841 
  242300    0.9924762   0.19363467    20.591155    22.273132   0.21401744 
  242400   0.99050248   0.19262216    20.591481    22.269486   0.38496024 
  242500   0.99425036   0.19367973    20.580594    22.265277   0.44717526 
  242600   0.99075163   0.19378794    20.582552    22.262096   0.36505767 
  242700     1.000097   0.19368836    20.579963    22.273422   0.32714767 
  242800   0.99459756   0.19513488    20.596057    22.282715   0.30614704 
  242900    1.0035109   0.20030029    20.589426    22.294617   0.38111352 
  243000    1.0140578     0.197014    20.581459     22.29918   0.31460394 
  243100   0.99627143   0.19510927    20.596117     22.28526   0.22067563 
  243200    1.0004477   0.19046967    20.597606    22.288372   0.38170585 
  243300    1.0179437   0.19189664    20.585596    22.304026   0.33398529 
  243400    1.0195264    0.1928253    20.598477     22.32021   0.37053167 
  243500    1.0277955   0.19033428    20.595928    22.327571   0.28912341 
  243600    1.0357727   0.19139335    20.589125    22.333789   0.49202136 
  243700    1.0165497   0.19376722    20.597069     22.31528    0.2609698 
  243800    1.0129148   0.19908983    20.599921    22.318004   0.19079947 
  243900    1.0024557   0.20355518     20.58665    22.293512   0.25998446 
  244000    1.0051959   0.20289888    20.602456    22.312771   0.27055936 
Loop time of 0.464074 on 4 procs (4 MPI x 1 OpenMP) for 2000 steps with 4000 atoms

Pair  time (%) = 0.136551 (29.4245)
Bond  time (%) = 0.0449843 (9.69333)
Neigh time (%) = 0.0274579 (5.9167)
Comm  time (%) = 0.0938539 (20.2239)
Outpt time (%) = 0.00109494 (0.23594)
Other time (%) = 0.160132 (34.5057)

Nlocal:    1000 ave 1039 max 965 min
Histogram: 2 0 0 0 0 0 0 0 1 1
Nghost:    1118 ave 1129 max 1100 min
Histogram: 1 0 0 0 0 0 1 1 0 1
Neighs:    3079 ave 3348 max 2828 min
Histogram: 2 0 0 0 0 0 0 0 1 1

Total # of neighbors = 12316
Ave neighs/atom = 3.079
Ave special neighs/atom = 5.925
Neighbor list builds = 44
Dangerous builds = 0
shell          head -n 2 Temp.txt | tail -n 1 >> Tempfile.txt
shell          head -n 2 Bond.txt | tail -n 1 >> Bondfile.txt
next           myTempStr
next           myBondStr
if "${myBond} <= 0" then "jump imdinput.txt nobonds"
jump           imdinput.txt loop2here

# specifies the run length in timesteps
run            2000
WARNING: Use special bonds = 0,1,1 with bond style fene (../bond_fene.cpp:188)
Memory usage per processor = 5.58688 Mbytes
Step Temp E_pair E_mol TotEng Press 
  244000    1.0051959   0.20289888    20.602456    22.312771   0.27055936 
  244100    1.0025582   0.20134349    20.598933    22.303738   0.40379524 
  244200    1.0049747   0.20009628     20.57906    22.286241   0.49805795 
  244300   0.98954955   0.19922615    20.610875    22.294054   0.34915806 
  244400   0.99436379   0.19743769    20.592043    22.280653   0.34827482 
  244500   0.99853384    0.1944254    20.600171    22.292023   0.24228748 
  244600   0.99048259   0.19617815    20.595182    22.276713   0.55504918 
  244700    1.0039075   0.19797319    20.606408    22.309866  0.014632029 
  244800    1.0038726   0.19712245    20.612207    22.314761   0.29902315 
  244900     1.020765   0.19788321    20.599143    22.327791   0.44218331 
  245000    1.0221171     0.198379    20.593919    22.325091    0.3368418 
  245100    1.0007269    0.2036085     20.60307    22.307394   0.12109804 
  245200    1.0204177   0.20610745    20.581668     22.31802   0.31227998 
  245300    1.0147088    0.2093876    20.594818    22.325889   0.42512927 
  245400    1.0139157   0.20843102    20.595651    22.324576  0.095629613 
  245500    1.0199402   0.20589009    20.589666    22.325084   0.51115882 
  245600      1.01704   0.20217206    20.601183    22.328534   0.26732954 
  245700    1.0238553   0.20126199    20.601373    22.338034   0.28751405 
  245800    1.0144421   0.20657106    20.611435    22.339289   0.29399095 
  245900    1.0160242   0.20687051    20.604869    22.335395   0.31895518 
  246000    0.9975163   0.20784304    20.598457      22.3022   0.50283765 
Loop time of 0.45089 on 4 procs (4 MPI x 1 OpenMP) for 2000 steps with 4000 atoms

Pair  time (%) = 0.138187 (30.6477)
Bond  time (%) = 0.0447342 (9.92131)
Neigh time (%) = 0.0264376 (5.86342)
Comm  time (%) = 0.0838053 (18.5866)
Outpt time (%) = 0.00105655 (0.234326)
Other time (%) = 0.156669 (34.7466)

Nlocal:    1000 ave 1023 max 975 min
Histogram: 1 0 1 0 0 0 0 0 1 1
Nghost:    1106.5 ave 1141 max 1073 min
Histogram: 1 0 0 0 1 1 0 0 0 1
Neighs:    3131.5 ave 3236 max 2984 min
Histogram: 1 0 0 0 1 0 0 0 1 1

Total # of neighbors = 12526
Ave neighs/atom = 3.1315
Ave special neighs/atom = 5.925
Neighbor list builds = 43
Dangerous builds = 0
shell          head -n 2 Temp.txt | tail -n 1 >> Tempfile.txt
shell          head -n 2 Bond.txt | tail -n 1 >> Bondfile.txt
next           myTempStr
next           myBondStr
if "${myBond} <= 0" then "jump imdinput.txt nobonds"
jump           imdinput.txt loop2here

# specifies the run length in timesteps
run            2000
WARNING: Use special bonds = 0,1,1 with bond style fene (../bond_fene.cpp:188)
Memory usage per processor = 5.58248 Mbytes
Step Temp E_pair E_mol TotEng Press 
  246000    0.9975163   0.20784304    20.598457      22.3022   0.50283765 
  246100     1.006198   0.20569835    20.599374    22.313992   0.49684193 
  246200      1.00431   0.20386501      20.6056    22.315554   0.37715896 
  246300   0.99789361   0.20345181    20.596199    22.296117   0.40494871 
  246400    1.0111873   0.20175627    20.584621    22.302779   0.33705945 
  246500     1.016767    0.1978421    20.596266    22.318877   0.14478944 
  246600    1.0005801   0.19408956    20.602169    22.296754   0.37296495 
  246700    1.0066468    0.1928492    20.590422    22.292863    0.3878019 
  246800    1.0126232   0.18927874    20.588619    22.296453   0.34329838 
  246900     1.013035   0.18922091    20.588476    22.296869   0.29478816 
  247000     1.033942    0.1925314    20.578088    22.321144   0.37269215 
  247100    1.0172099   0.19456592     20.59699     22.31699   0.25444752 
  247200    1.0077748   0.19722047    20.610363    22.318868   0.29881145 
  247300     1.020312   0.19548998    20.597028    22.322603   0.58134771 
  247400    1.0249282   0.19673625    20.591009    22.324753   0.26210401 
  247500    1.0062579   0.19514675    20.611915    22.316071   0.28088912 
  247600    1.0152439   0.19435976     20.60623    22.323075   0.46934062 
  247700    1.0084331   0.19023437    20.610217    22.312723    0.2520704 
  247800    1.0114639   0.19029239    20.611128    22.318237    0.1032053 
  247900   0.99880069   0.18878741     20.61578    22.302394   0.40451221 
  248000     1.008169   0.18723248    20.591988    22.291096   0.46258139 
Loop time of 0.449268 on 4 procs (4 MPI x 1 OpenMP) for 2000 steps with 4000 atoms

Pair  time (%) = 0.13607 (30.2871)
Bond  time (%) = 0.0446532 (9.9391)
Neigh time (%) = 0.0265485 (5.90928)
Comm  time (%) = 0.0844954 (18.8073)
Outpt time (%) = 0.00105113 (0.233964)
Other time (%) = 0.15645 (34.8232)

Nlocal:    1000 ave 1011 max 977 min
Histogram: 1 0 0 0 0 0 0 1 0 2
Nghost:    1093.25 ave 1101 max 1081 min
Histogram: 1 0 0 0 0 1 0 0 0 2
Neighs:    3082.5 ave 3300 max 2778 min
Histogram: 1 0 0 0 0 0 1 1 0 1

Total # of neighbors = 12330
Ave neighs/atom = 3.0825
Ave special neighs/atom = 5.925
Neighbor list builds = 42
Dangerous builds = 0
shell          head -n 2 Temp.txt | tail -n 1 >> Tempfile.txt
shell          head -n 2 Bond.txt | tail -n 1 >> Bondfile.txt
next           myTempStr
next           myBondStr
if "${myBond} <= 0" then "jump imdinput.txt nobonds"
jump           imdinput.txt loop2here

# specifies the run length in timesteps
run            2000
WARNING: Use special bonds = 0,1,1 with bond style fene (../bond_fene.cpp:188)
Memory usage per processor = 5.57955 Mbytes
Step Temp E_pair E_mol TotEng Press 
  248000     1.008169   0.18723248    20.591988    22.291096   0.46258139 
  248100    1.0034058   0.18816706    20.607445    22.300345   0.50402603 
  248200    1.0037298   0.19067087    20.605515    22.301404   0.11446473 
  248300   0.99325679   0.19021634    20.607817    22.287547   0.43889774 
  248400   0.98469076   0.19064422    20.600511    22.267822   0.40332108 
  248500   0.98753851   0.19012423    20.597862    22.268924   0.33517137 
  248600    1.0015368   0.18784488    20.600308    22.290082   0.21234199 
  248700    1.0049609   0.18581246     20.59897    22.291847   0.53540213 
  248800    1.0055938   0.18497809    20.602241    22.295232   0.29085092 
  248900    1.0136806   0.18118563    20.615741    22.317068   0.10914357 
  249000      1.00851   0.18717658     20.61089    22.310453   0.21665237 
  249100    1.0045781   0.19041882    20.602066    22.298975   0.60187324 
  249200   0.99429866   0.18685743    20.616098    22.294031   0.48950004 
  249300   0.99097491   0.17972497     20.61814    22.283956   0.57231939 
  249400    1.0012199   0.18113528     20.60248     22.28507   0.17446377 
  249500   0.98992011   0.18561162    20.603778    22.273899   0.11871651 
  249600   0.98306413   0.18871436    20.596792    22.259734   0.29409569 
  249700    0.9978554   0.18975296    20.591621    22.277782   0.42310674 
  249800    1.0032638   0.18674473    20.586689    22.277953    0.4638306 
  249900   0.99984859   0.18457497    20.594262    22.278235   0.12456557 
  250000   0.99698798   0.18328292    20.592968    22.271359   0.22505364 
Loop time of 0.433955 on 4 procs (4 MPI x 1 OpenMP) for 2000 steps with 4000 atoms

Pair  time (%) = 0.132764 (30.5941)
Bond  time (%) = 0.0442272 (10.1917)
Neigh time (%) = 0.0257886 (5.94269)
Comm  time (%) = 0.0764134 (17.6086)
Outpt time (%) = 0.00102293 (0.235724)
Other time (%) = 0.153738 (35.4273)

Nlocal:    1000 ave 1015 max 977 min
Histogram: 1 0 0 0 0 0 1 1 0 1
Nghost:    1068 ave 1091 max 1048 min
Histogram: 1 1 0 0 0 0 1 0 0 1
Neighs:    3079.5 ave 3179 max 2915 min
Histogram: 1 0 0 0 0 0 1 0 1 1

Total # of neighbors = 12318
Ave neighs/atom = 3.0795
Ave special neighs/atom = 5.925
Neighbor list builds = 42
Dangerous builds = 0
shell          head -n 2 Temp.txt | tail -n 1 >> Tempfile.txt
shell          head -n 2 Bond.txt | tail -n 1 >> Bondfile.txt
next           myTempStr
next           myBondStr
if "${myBond} <= 0" then "jump imdinput.txt nobonds"
jump           imdinput.txt loop2here

# specifies the run length in timesteps
run            2000
WARNING: Use special bonds = 0,1,1 with bond style fene (../bond_fene.cpp:188)
Memory usage per processor = 5.58053 Mbytes
Step Temp E_pair E_mol TotEng Press 
  250000   0.99698798   0.18328292    20.592968    22.271359   0.22505364 
  250100    1.0019574    0.1894956    20.581139    22.273195   0.52295288 
  250200      1.00005   0.19434147    20.586857    22.280899   0.25524701 
  250300   0.99788611   0.19535973    20.599462    22.291276   0.23884537 
  250400    1.0104704   0.19361834    20.595491    22.304436   0.21133942 
  250500    1.0237781    0.1918416    20.584852    22.311977   0.46047649 
  250600    1.0073888    0.1899224    20.612594    22.313222   0.52491258 
  250700    1.0037583   0.19136137    20.608638    22.305261   0.10049525 
  250800     1.005644   0.19216037    20.601206    22.301456   0.40936019 
  250900     1.011468   0.19194868    20.595282    22.304054   0.42564732 
  251000    1.0172861   0.19472846    20.583292    22.303568     0.405881 
  251100     1.013039   0.19563429    20.596927     22.31174   0.50208094 
  251200    1.0006695   0.19772063    20.596857    22.295207   0.31429298 
  251300   0.98290322   0.19836551    20.609368    22.281719 0.0069343924 
  251400   0.98656227   0.19644714     20.58893    22.264851   0.44899671 
  251500   0.98369218   0.19525985    20.593474    22.263903   0.36618849 
  251600   0.99928868    0.1936283    20.584702    22.276889   0.46262347 
  251700   0.99936138   0.19090675    20.595393    22.284967   0.38170939 
  251800   0.99437694   0.18703736    20.591478    22.269708     0.318216 
  251900    1.0036668   0.18232927    20.587578    22.275031   0.36654361 
  252000    1.0069519   0.18222009     20.59012     22.28239   0.49739836 
Loop time of 0.444197 on 4 procs (4 MPI x 1 OpenMP) for 2000 steps with 4000 atoms

Pair  time (%) = 0.134091 (30.1874)
Bond  time (%) = 0.0445411 (10.0273)
Neigh time (%) = 0.0254169 (5.72198)
Comm  time (%) = 0.0829906 (18.6833)
Outpt time (%) = 0.00104314 (0.234837)
Other time (%) = 0.156114 (35.1452)

Nlocal:    1000 ave 1030 max 950 min
Histogram: 1 0 0 0 0 0 1 0 1 1
Nghost:    1066.25 ave 1087 max 1035 min
Histogram: 1 0 0 0 0 1 0 0 1 1
Neighs:    3093 ave 3364 max 2732 min
Histogram: 1 0 0 0 1 0 0 1 0 1

Total # of neighbors = 12372
Ave neighs/atom = 3.093
Ave special neighs/atom = 5.925
Neighbor list builds = 41
Dangerous builds = 0
shell          head -n 2 Temp.txt | tail -n 1 >> Tempfile.txt
shell          head -n 2 Bond.txt | tail -n 1 >> Bondfile.txt
next           myTempStr
next           myBondStr
if "${myBond} <= 0" then "jump imdinput.txt nobonds"
jump           imdinput.txt loop2here

# specifies the run length in timesteps
run            2000
WARNING: Use special bonds = 0,1,1 with bond style fene (../bond_fene.cpp:188)
Memory usage per processor = 5.58346 Mbytes
Step Temp E_pair E_mol TotEng Press 
  252000    1.0069519   0.18222009     20.59012     22.28239   0.49739836 
  252100    1.0100496   0.18389649    20.586194    22.284786   0.29663746 
  252200   0.98586854   0.18509949    20.610878    22.274411   0.12945517 
  252300     1.003758   0.18825299    20.589667    22.283181     0.277601 
  252400    1.0113333   0.19307123    20.588641    22.298333   0.29132591 
  252500    1.0183808   0.19368972    20.588627    22.309506   0.23241875 
  252600    1.0096965    0.1951876     20.57961    22.288964   0.37581802 
  252700    1.0074349   0.19827199    20.590316    22.299362    0.4236361 
  252800    1.0061057   0.19996482    20.574076    22.282822   0.42685166 
  252900   0.97818392   0.20296061    20.593474    22.263343  0.036146269 
  253000     1.003897   0.20503993      20.5753    22.285809   0.30392917 
  253100    1.0117071   0.20446119    20.580449    22.302091  0.061797375 
  253200    1.0031827   0.19908002    20.589926    22.293404   0.33294225 
  253300   0.99735405   0.19527713    20.600119    22.291054   0.50835948 
  253400   0.99476849   0.19459273    20.595305    22.281677   0.45833322 
  253500   0.99183203   0.19512398    20.595492    22.277992   0.45234853 
  253600   0.98632563   0.19463226    20.590813    22.264564   0.12007403 
  253700    1.0039446   0.19691667    20.575998    22.278455   0.57469579 
  253800   0.99183687   0.19854544    20.589418    22.275347   0.41508148 
  253900     0.997451   0.20016091    20.600618    22.296581    0.1549574 
  254000    1.0136677   0.20461418    20.582183    22.306919   0.19070207 
Loop time of 0.442857 on 4 procs (4 MPI x 1 OpenMP) for 2000 steps with 4000 atoms

Pair  time (%) = 0.135324 (30.5571)
Bond  time (%) = 0.0446048 (10.0721)
Neigh time (%) = 0.0259455 (5.85866)
Comm  time (%) = 0.0806318 (18.2072)
Outpt time (%) = 0.0010044 (0.2268)
Other time (%) = 0.155346 (35.0782)

Nlocal:    1000 ave 1023 max 986 min
Histogram: 1 1 0 1 0 0 0 0 0 1
Nghost:    1065 ave 1100 max 1043 min
Histogram: 1 1 0 0 1 0 0 0 0 1
Neighs:    3088.5 ave 3361 max 2948 min
Histogram: 2 0 1 0 0 0 0 0 0 1

Total # of neighbors = 12354
Ave neighs/atom = 3.0885
Ave special neighs/atom = 5.925
Neighbor list builds = 42
Dangerous builds = 0
shell          head -n 2 Temp.txt | tail -n 1 >> Tempfile.txt
shell          head -n 2 Bond.txt | tail -n 1 >> Bondfile.txt
next           myTempStr
next           myBondStr
if "${myBond} <= 0" then "jump imdinput.txt nobonds"
jump           imdinput.txt loop2here

# specifies the run length in timesteps
run            2000
WARNING: Use special bonds = 0,1,1 with bond style fene (../bond_fene.cpp:188)
Memory usage per processor = 5.58297 Mbytes
Step Temp E_pair E_mol TotEng Press 
  254000    1.0136677   0.20461418    20.582183    22.306919   0.19070207 
  254100    1.0137632   0.20355105    20.579424    22.303239   0.24493772 
  254200    1.0189028   0.19673321    20.576022    22.300727   0.48461286 
  254300    1.0075098   0.19189435    20.594157    22.296938   0.34764051 
  254400    1.0031834   0.18925428    20.591809    22.285463   0.34099156 
  254500   0.99066286   0.19188285    20.599538    22.277043   0.13375336 
  254600   0.98523356   0.19070012    20.590474    22.258655   0.71188347 
  254700   0.99208066   0.19397356    20.597751    22.279474   0.23808315 
  254800   0.98556153   0.19130396    20.610726    22.280003   0.50345406 
  254900    0.9842766   0.19219682    20.601282    22.269525   0.30656388 
  255000   0.98546066   0.19379541    20.596035    22.267652   0.40465628 
  255100   0.99777153   0.19069063    20.575983    22.262957   0.13446493 
  255200   0.99857584   0.18446344    20.583598    22.265551   0.30376555 
  255300   0.98738228   0.18395494    20.592389    22.257047    0.2242406 
  255400    1.0036302   0.18142999    20.591915    22.278414   0.38575002 
  255500   0.98970822   0.18293257    20.598442    22.265565   0.35839831 
  255600   0.99175599   0.18106286    20.583458    22.251783    0.3370996 
  255700   0.99013884   0.18138369    20.590717    22.256938   0.36610689 
  255800   0.99307641   0.18676909    20.586791    22.262803   0.23111638 
  255900   0.98895297   0.19291602    20.585801    22.261776   0.31435262 
  256000   0.98794051   0.19581733    20.604693     22.28205   0.27767155 
Loop time of 0.440439 on 4 procs (4 MPI x 1 OpenMP) for 2000 steps with 4000 atoms

Pair  time (%) = 0.13281 (30.1541)
Bond  time (%) = 0.0444386 (10.0896)
Neigh time (%) = 0.0255817 (5.80823)
Comm  time (%) = 0.0805369 (18.2856)
Outpt time (%) = 0.00104111 (0.236381)
Other time (%) = 0.156031 (35.4261)

Nlocal:    1000 ave 1021 max 980 min
Histogram: 2 0 0 0 0 0 0 0 1 1
Nghost:    1103.25 ave 1136 max 1071 min
Histogram: 1 0 1 0 0 0 1 0 0 1
Neighs:    3081.5 ave 3182 max 2983 min
Histogram: 1 0 0 1 0 1 0 0 0 1

Total # of neighbors = 12326
Ave neighs/atom = 3.0815
Ave special neighs/atom = 5.925
Neighbor list builds = 42
Dangerous builds = 0
shell          head -n 2 Temp.txt | tail -n 1 >> Tempfile.txt
shell          head -n 2 Bond.txt | tail -n 1 >> Bondfile.txt
next           myTempStr
next           myBondStr
if "${myBond} <= 0" then "jump imdinput.txt nobonds"
jump           imdinput.txt loop2here

# specifies the run length in timesteps
run            2000
WARNING: Use special bonds = 0,1,1 with bond style fene (../bond_fene.cpp:188)
Memory usage per processor = 5.58297 Mbytes
Step Temp E_pair E_mol TotEng Press 
  256000   0.98794051   0.19581733    20.604693     22.28205   0.27767155 
  256100   0.98345692   0.19445684    20.593713    22.262987   0.43342476 
  256200   0.97868411   0.19420865    20.585893    22.247761   0.27137141 
  256300   0.95991386   0.19249449    20.604261    22.236267   0.44794509 
  256400   0.98460774   0.19147027    20.579153    22.247166   0.11871451 
  256500   0.98651991   0.19225557    20.588994    22.260659   0.33376163 
  256600    1.0031317   0.19408102    20.578262    22.276664   0.31340239 
  256700    1.0007931   0.19504064    20.590296    22.286151   0.52999451 
  256800   0.99279767   0.19726327    20.594087    22.280174   0.30272767 
  256900   0.98427144   0.19938829    20.606042    22.281469   0.40479143 
  257000   0.99849126   0.19702123    20.597345    22.291729   0.31224005 
  257100   0.99068155   0.19544996    20.603786    22.284887   0.25666881 
  257200    1.0090124   0.19467699     20.58023    22.288047   0.43594677 
  257300    1.0005223   0.19789557    20.585616    22.283919   0.31643444 
  257400   0.99453522   0.20094869    20.590521    22.282899   0.57609396 
  257500   0.99718222   0.20176097    20.581249    22.278409   0.23236281 
  257600   0.98543003   0.19840659    20.579924    22.256107   0.41263661 
  257700   0.99477309   0.19692667    20.570249    22.258962   0.23158284 
  257800   0.99162254   0.19580182    20.594198    22.277062   0.26228943 
  257900   0.99634671   0.19487309    20.582567    22.271586   0.46944198 
  258000    1.0108547   0.19630093    20.569229    22.281433   0.23047247 
Loop time of 0.442963 on 4 procs (4 MPI x 1 OpenMP) for 2000 steps with 4000 atoms

Pair  time (%) = 0.135067 (30.4918)
Bond  time (%) = 0.0443436 (10.0107)
Neigh time (%) = 0.0251197 (5.67084)
Comm  time (%) = 0.0805535 (18.1851)
Outpt time (%) = 0.00104183 (0.235195)
Other time (%) = 0.156837 (35.4064)

Nlocal:    1000 ave 1019 max 981 min
Histogram: 1 0 0 1 0 0 1 0 0 1
Nghost:    1103.75 ave 1117 max 1088 min
Histogram: 1 0 0 1 0 0 0 0 1 1
Neighs:    3113 ave 3202 max 3059 min
Histogram: 1 1 0 1 0 0 0 0 0 1

Total # of neighbors = 12452
Ave neighs/atom = 3.113
Ave special neighs/atom = 5.925
Neighbor list builds = 41
Dangerous builds = 0
shell          head -n 2 Temp.txt | tail -n 1 >> Tempfile.txt
shell          head -n 2 Bond.txt | tail -n 1 >> Bondfile.txt
next           myTempStr
next           myBondStr
if "${myBond} <= 0" then "jump imdinput.txt nobonds"
jump           imdinput.txt loop2here

# specifies the run length in timesteps
run            2000
WARNING: Use special bonds = 0,1,1 with bond style fene (../bond_fene.cpp:188)
Memory usage per processor = 5.58224 Mbytes
Step Temp E_pair E_mol TotEng Press 
  258000    1.0108547   0.19630093    20.569229    22.281433   0.23047247 
  258100    0.9883575   0.19699056    20.592692    22.271848   0.37241912 
  258200   0.99203525   0.19502502    20.588382    22.271088   0.39264234 
  258300   0.99082978   0.19457317    20.592512    22.272958   0.19090714 
  258400   0.99551748   0.19345616    20.590731     22.27709   0.42209232 
  258500   0.98957483   0.19247156    20.590794    22.267257   0.32816416 
  258600    1.0005059   0.19399381    20.575509    22.269887   0.51388424 
  258700   0.98675648   0.19343456    20.597778    22.270977    0.2901283 
  258800     1.000989    0.1935162    20.584066     22.27869   0.25379031 
  258900   0.99148388    0.1940212    20.586217    22.267093   0.25234519 
  259000     1.003034   0.19368989    20.589435      22.2873   0.30259096 
  259100    1.0080993   0.19156767    20.590985    22.294324    0.2969389 
  259200    1.0004184   0.19031807     20.60759     22.29816   0.33159166 
  259300    1.0072903   0.19180257    20.592967    22.295328   0.57164341 
  259400    1.0115112   0.18858146    20.598272    22.303741   0.24455256 
  259500    1.0236449   0.18620497    20.591907    22.313196   0.16123022 
  259600    1.0245701   0.18447292    20.605921    22.326864   0.46639145 
  259700    1.0439375   0.18450657    20.584562    22.334583   0.55490499 
  259800    1.0399166   0.18683774    20.603851    22.350174   0.36209795 
  259900    1.0288221   0.19078159     20.60954    22.343169  0.075528285 
  260000    1.0401307   0.19130601    20.575995    22.327107   0.38635048 
Loop time of 0.448915 on 4 procs (4 MPI x 1 OpenMP) for 2000 steps with 4000 atoms

Pair  time (%) = 0.134231 (29.9013)
Bond  time (%) = 0.0444364 (9.89861)
Neigh time (%) = 0.0256805 (5.72058)
Comm  time (%) = 0.0865685 (19.2839)
Outpt time (%) = 0.00102341 (0.227974)
Other time (%) = 0.156975 (34.9676)

Nlocal:    1000 ave 1023 max 980 min
Histogram: 1 0 0 1 0 1 0 0 0 1
Nghost:    1081.25 ave 1124 max 1048 min
Histogram: 1 0 0 1 1 0 0 0 0 1
Neighs:    3052.25 ave 3229 max 2909 min
Histogram: 1 1 0 0 0 0 1 0 0 1

Total # of neighbors = 12209
Ave neighs/atom = 3.05225
Ave special neighs/atom = 5.925
Neighbor list builds = 41
Dangerous builds = 0
shell          head -n 2 Temp.txt | tail -n 1 >> Tempfile.txt
shell          head -n 2 Bond.txt | tail -n 1 >> Bondfile.txt
next           myTempStr
next           myBondStr
if "${myBond} <= 0" then "jump imdinput.txt nobonds"
jump           imdinput.txt loop2here

# specifies the run length in timesteps
run            2000
WARNING: Use special bonds = 0,1,1 with bond style fene (../bond_fene.cpp:188)
Memory usage per processor = 5.58175 Mbytes
Step Temp E_pair E_mol TotEng Press 
  260000    1.0401307   0.19130601    20.575995    22.327107   0.38635048 
  260100    1.0232962   0.19303241    20.588121    22.315714   0.48663776 
  260200     1.024902   0.19235885    20.592451    22.321778   0.37624145 
  260300    1.0280158   0.19371272    20.589931    22.325282   0.25483134 
  260400    1.0243958   0.19429688    20.595199    22.325706   0.36006033 
  260500    1.0099063   0.19337647    20.611433    22.319291    0.2147189 
  260600     1.009405   0.19337129    20.584773    22.291873   0.45022664 
  260700    1.0217462   0.19701355    20.596904    22.326153   0.53358742 
  260800    1.0337275   0.19550003    20.593667    22.339371   0.17366751 
  260900    1.0272474   0.19137832    20.593915    22.325779   0.14034673 
  261000    1.0230367   0.18924043    20.584424    22.307836   0.36472522 
  261100      1.01498   0.19119486    20.599168    22.312452   0.44750931 
  261200    1.0247676   0.19109654    20.589083    22.316946    0.2591588 
  261300    1.0183249   0.19440547    20.593804    22.315314   0.17777936 
  261400    1.0168913   0.19466841    20.589393    22.309017   0.21738267 
  261500    1.0074784    0.1911304    20.599593    22.301563    0.1988895 
  261600    1.0150602   0.18963178    20.605074    22.316916   0.42140025 
  261700    1.0116497   0.19184914    20.583959    22.292903   0.35944926 
  261800   0.97888271   0.19468791    20.610124    22.272769    0.1148878 
  261900   0.98356693   0.19546174    20.604187    22.274631   0.46359009 
  262000   0.97059913   0.19446768    20.599031    22.249033   0.42737856 
Loop time of 0.442833 on 4 procs (4 MPI x 1 OpenMP) for 2000 steps with 4000 atoms

Pair  time (%) = 0.135895 (30.6876)
Bond  time (%) = 0.0443653 (10.0185)
Neigh time (%) = 0.0255107 (5.7608)
Comm  time (%) = 0.0812449 (18.3466)
Outpt time (%) = 0.00102919 (0.232411)
Other time (%) = 0.154788 (34.9541)

Nlocal:    1000 ave 1019 max 962 min
Histogram: 1 0 0 0 0 0 0 1 0 2
Nghost:    1070.25 ave 1091 max 1047 min
Histogram: 1 0 0 1 0 0 0 1 0 1
Neighs:    3067.25 ave 3181 max 2900 min
Histogram: 1 0 0 0 0 1 0 0 1 1

Total # of neighbors = 12269
Ave neighs/atom = 3.06725
Ave special neighs/atom = 5.925
Neighbor list builds = 42
Dangerous builds = 0
shell          head -n 2 Temp.txt | tail -n 1 >> Tempfile.txt
shell          head -n 2 Bond.txt | tail -n 1 >> Bondfile.txt
next           myTempStr
next           myBondStr
if "${myBond} <= 0" then "jump imdinput.txt nobonds"
jump           imdinput.txt loop2here

# specifies the run length in timesteps
run            2000
WARNING: Use special bonds = 0,1,1 with bond style fene (../bond_fene.cpp:188)
Memory usage per processor = 5.5815 Mbytes
Step Temp E_pair E_mol TotEng Press 
  262000   0.97059913   0.19446768    20.599031    22.249033   0.42737856 
  262100   0.99234645   0.19257377    20.585124    22.265846   0.59349813 
  262200   0.99448495    0.1966745    20.581996    22.270025   0.41924285 
  262300   0.98053142   0.19854813    20.600353    22.269331   0.19778399 
  262400   0.99089014   0.19815622    20.583334    22.267454   0.32565182 
  262500    0.9676636   0.20248563    20.602012     22.25563  0.046909291 
  262600   0.99039487   0.20340257    20.587219    22.275843   0.44546151 
  262700     0.984733   0.19959489    20.609593    22.285918   0.54263261 
  262800    1.0053699    0.1973438    20.578872    22.283894   0.64642242 
  262900    0.9794329   0.19268587     20.61284    22.274308    0.2676255 
  263000    1.0033627   0.18855378    20.582622    22.275844   0.45220909 
  263100   0.99708409    0.1861151    20.609819    22.291187   0.21711599 
  263200    1.0021923   0.18465122    20.589828    22.277391   0.32710238 
  263300   0.99453555   0.18607402    20.596201    22.273705   0.29462638 
  263400    1.0069072   0.18445401    20.576823    22.271261   0.11846529 
  263500   0.99168257   0.18442271    20.588588    22.260163   0.38084254 
  263600    1.0041715   0.18238941    20.574585    22.262855   0.42551237 
  263700    0.9872728   0.18426111    20.599965    22.264765   0.39228737 
  263800    1.0029988   0.18431705     20.58786    22.276299   0.20205551 
  263900   0.99779525   0.18507573    20.587187    22.268582   0.38727023 
  264000   0.99615879   0.18693426    20.586628    22.267427   0.45504475 
Loop time of 0.46097 on 4 procs (4 MPI x 1 OpenMP) for 2000 steps with 4000 atoms

Pair  time (%) = 0.137039 (29.7285)
Bond  time (%) = 0.0455681 (9.88527)
Neigh time (%) = 0.0265154 (5.75209)
Comm  time (%) = 0.0894653 (19.408)
Outpt time (%) = 0.00107253 (0.232667)
Other time (%) = 0.161309 (34.9934)

Nlocal:    1000 ave 1007 max 987 min
Histogram: 1 0 0 0 0 0 0 1 1 1
Nghost:    1073 ave 1092 max 1044 min
Histogram: 1 0 0 0 0 1 0 0 0 2
Neighs:    3048.25 ave 3124 max 2970 min
Histogram: 1 0 0 1 0 0 1 0 0 1

Total # of neighbors = 12193
Ave neighs/atom = 3.04825
Ave special neighs/atom = 5.925
Neighbor list builds = 41
Dangerous builds = 0
shell          head -n 2 Temp.txt | tail -n 1 >> Tempfile.txt
shell          head -n 2 Bond.txt | tail -n 1 >> Bondfile.txt
next           myTempStr
next           myBondStr
if "${myBond} <= 0" then "jump imdinput.txt nobonds"
jump           imdinput.txt loop2here

# specifies the run length in timesteps
run            2000
WARNING: Use special bonds = 0,1,1 with bond style fene (../bond_fene.cpp:188)
Memory usage per processor = 5.57858 Mbytes
Step Temp E_pair E_mol TotEng Press 
  264000   0.99615879   0.18693426    20.586628    22.267427   0.45504475 
  264100   0.99473432   0.19016885    20.608126    22.290024   0.53321914 
  264200   0.98167671   0.19474976    20.607517    22.274413   0.38917637 
  264300   0.98852322    0.1989125    20.580893     22.26222   0.58074263 
  264400   0.97699372   0.19921359     20.58719    22.251528   0.29405214 
  264500   0.99196886    0.1940794    20.584656    22.266317   0.38190062 
  264600   0.98894005   0.19242869    20.594637    22.270105   0.20299894 
  264700     1.002608   0.19214427    20.590553    22.286233   0.45346084 
  264800    1.0130668   0.19426622    20.586011    22.299498   0.42152362 
  264900   0.99584501   0.19883065    20.601993    22.294217   0.14313028 
  265000    1.0010401   0.19711737    20.593333    22.291635   0.12378411 
  265100   0.97956087   0.19845302    20.609249    22.276676   0.31417767 
  265200    1.0037482   0.20029961    20.597413    22.302958   0.29210762 
  265300     1.000286    0.2003865      20.6018     22.30224    0.3300281 
  265400    1.0088619   0.20103759    20.593394    22.307347   0.39443038 
  265500    1.0112125   0.20040777    20.590691    22.307538   0.30408026 
  265600    1.0035599   0.19916248    20.588756    22.292882    0.4208153 
  265700    1.0087858   0.19720771    20.590109    22.300117   0.16119857 
  265800    1.0101587   0.19470906    20.576618    22.286186   0.22990329 
  265900   0.99991526   0.19231159    20.595042    22.286851   0.43869551 
  266000    1.0017139   0.19356525    20.591089     22.28685   0.46523509 
Loop time of 0.469656 on 4 procs (4 MPI x 1 OpenMP) for 2000 steps with 4000 atoms

Pair  time (%) = 0.139613 (29.7266)
Bond  time (%) = 0.0458184 (9.75573)
Neigh time (%) = 0.0265596 (5.65511)
Comm  time (%) = 0.0920714 (19.604)
Outpt time (%) = 0.00105143 (0.223871)
Other time (%) = 0.164543 (35.0347)

Nlocal:    1000 ave 1017 max 957 min
Histogram: 1 0 0 0 0 0 0 0 1 2
Nghost:    1089.75 ave 1128 max 1053 min
Histogram: 1 0 0 1 0 0 1 0 0 1
Neighs:    3071.75 ave 3172 max 2899 min
Histogram: 1 0 0 0 0 0 1 0 1 1

Total # of neighbors = 12287
Ave neighs/atom = 3.07175
Ave special neighs/atom = 5.925
Neighbor list builds = 41
Dangerous builds = 0
shell          head -n 2 Temp.txt | tail -n 1 >> Tempfile.txt
shell          head -n 2 Bond.txt | tail -n 1 >> Bondfile.txt
next           myTempStr
next           myBondStr
if "${myBond} <= 0" then "jump imdinput.txt nobonds"
jump           imdinput.txt loop2here

# specifies the run length in timesteps
run            2000
WARNING: Use special bonds = 0,1,1 with bond style fene (../bond_fene.cpp:188)
Memory usage per processor = 5.58126 Mbytes
Step Temp E_pair E_mol TotEng Press 
  266000    1.0017139   0.19356525    20.591089     22.28685   0.46523509 
  266100    1.0052245   0.19829987    20.586569    22.292329 -0.041422065 
  266200   0.99428806    0.2009777    20.587929    22.279965   0.56181151 
  266300   0.99173775   0.20527953    20.593624    22.286138   0.37610951 
  266400    0.9906472   0.20583848    20.588762    22.280199   0.38035721 
  266500    0.9835873   0.20573664    20.595048    22.275797   0.20877866 
  266600    1.0019115   0.20190762    20.570015    22.274415   0.45088402 
  266700   0.99897433   0.20065041    20.580178    22.278916    0.2954261 
  266800   0.98670773   0.20086084    20.603922    22.284474   0.34992545 
  266900   0.99328792   0.19958997    20.596214    22.285363   0.49091579 
  267000   0.97885646    0.2003913    20.597598    22.265907   0.54853562 
  267100   0.98422769   0.19872281    20.582894    22.257589    0.2618833 
  267200    0.9754204   0.19960892    20.600545    22.262919   0.34450447 
  267300   0.99203046   0.20258731    20.586303    22.276564   0.31485204 
  267400    1.0011469   0.19953691     20.58775    22.288632   0.49582721 
  267500    1.0129616   0.19514702    20.575115    22.289324    0.4533595 
  267600    1.0026014   0.19141852    20.590411    22.285355 -0.091079086 
  267700   0.98751169   0.19005667    20.595802    22.266756   0.48236939 
  267800   0.99641137   0.19071386    20.586987    22.271945   0.26970871 
  267900   0.99463122   0.19245397    20.592402    22.276429   0.33838383 
  268000   0.98654085   0.19376399    20.606976    22.280181   0.27247062 
Loop time of 0.476228 on 4 procs (4 MPI x 1 OpenMP) for 2000 steps with 4000 atoms

Pair  time (%) = 0.139861 (29.3686)
Bond  time (%) = 0.045541 (9.56287)
Neigh time (%) = 0.0267991 (5.62738)
Comm  time (%) = 0.0980252 (20.5837)
Outpt time (%) = 0.00114822 (0.241108)
Other time (%) = 0.164853 (34.6164)

Nlocal:    1000 ave 1026 max 972 min
Histogram: 1 0 0 1 0 0 0 1 0 1
Nghost:    1077 ave 1096 max 1044 min
Histogram: 1 0 0 0 0 0 1 0 1 1
Neighs:    3107.25 ave 3210 max 2990 min
Histogram: 1 0 0 1 0 0 0 1 0 1

Total # of neighbors = 12429
Ave neighs/atom = 3.10725
Ave special neighs/atom = 5.925
Neighbor list builds = 42
Dangerous builds = 0
shell          head -n 2 Temp.txt | tail -n 1 >> Tempfile.txt
shell          head -n 2 Bond.txt | tail -n 1 >> Bondfile.txt
next           myTempStr
next           myBondStr
if "${myBond} <= 0" then "jump imdinput.txt nobonds"
jump           imdinput.txt loop2here

# specifies the run length in timesteps
run            2000
WARNING: Use special bonds = 0,1,1 with bond style fene (../bond_fene.cpp:188)
Memory usage per processor = 5.58395 Mbytes
Step Temp E_pair E_mol TotEng Press 
  268000   0.98654085   0.19376399    20.606976    22.280181   0.27247062 
  268100    1.0085303   0.19498976    20.587085    22.294492    0.3826501 
  268200    1.0080125   0.19409925    20.587032    22.292772   0.27993729 
  268300     1.010093   0.19230781    20.600052    22.307121   0.36354392 
  268400    1.0174529   0.19389559    20.597778    22.317471   0.37474432 
  268500    1.0062394   0.19534433    20.603988    22.308314   0.27295419 
  268600    1.0211715   0.19606416    20.591545    22.318984   0.41932575 
  268700    1.0246547   0.19430196    20.584896    22.315796   0.44365793 
  268800    1.0114287   0.19159109    20.604662    22.313017   0.40775037 
  268900    1.0047613   0.19258038    20.604819    22.304165   0.49298226 
  269000    1.0101594   0.19671356    20.610398    22.321972 -0.094852235 
  269100    1.0100147   0.19517391    20.604128    22.313945    0.1926611 
  269200   0.99914372   0.19100806    20.603478    22.292827   0.36587299 
  269300    1.0130009   0.19009366    20.603061    22.312276   0.48528048 
  269400    1.0005218   0.19071741     20.60495    22.296075   0.40719314 
  269500    0.9955333   0.19498802    20.588146    22.276061   0.35179897 
  269600   0.99039447   0.19516471    20.597427    22.277812   0.43819046 
  269700   0.98391587   0.19272575    20.615431    22.283661   0.47445456 
  269800   0.99581791   0.19761033     20.60239    22.293353  0.091678612 
  269900    1.0061072   0.19972369    20.591972    22.300479   0.45684648 
  270000    1.0060214   0.19898914    20.595189    22.302833   0.35693528 
Loop time of 0.468438 on 4 procs (4 MPI x 1 OpenMP) for 2000 steps with 4000 atoms

Pair  time (%) = 0.139164 (29.7082)
Bond  time (%) = 0.0454068 (9.69324)
Neigh time (%) = 0.0261377 (5.57974)
Comm  time (%) = 0.0924242 (19.7303)
Outpt time (%) = 0.00110281 (0.235422)
Other time (%) = 0.164202 (35.0532)

Nlocal:    1000 ave 1028 max 975 min
Histogram: 1 0 1 0 0 0 1 0 0 1
Nghost:    1080 ave 1127 max 1013 min
Histogram: 1 0 0 0 0 1 0 1 0 1
Neighs:    3093 ave 3240 max 2916 min
Histogram: 1 0 0 0 0 1 1 0 0 1

Total # of neighbors = 12372
Ave neighs/atom = 3.093
Ave special neighs/atom = 5.925
Neighbor list builds = 41
Dangerous builds = 0
shell          head -n 2 Temp.txt | tail -n 1 >> Tempfile.txt
shell          head -n 2 Bond.txt | tail -n 1 >> Bondfile.txt
next           myTempStr
next           myBondStr
if "${myBond} <= 0" then "jump imdinput.txt nobonds"
jump           imdinput.txt loop2here

# specifies the run length in timesteps
run            2000
WARNING: Use special bonds = 0,1,1 with bond style fene (../bond_fene.cpp:188)
Memory usage per processor = 5.58346 Mbytes
Step Temp E_pair E_mol TotEng Press 
  270000    1.0060214   0.19898914    20.595189    22.302833   0.35693528 
  270100    1.0055719   0.19732613    20.598412    22.303719   0.46358388 
  270200   0.99403668   0.20096514    20.613933    22.305581   0.10088606 
  270300   0.99406138   0.19955303    20.603053    22.293325   0.10529013 
  270400    1.0198742   0.19816144    20.573421    22.301011   0.26472862 
  270500    1.0007857    0.1972022    20.584456    22.282461   0.51837849 
  270600   0.99751736   0.19631953    20.580027    22.272249   0.40009135 
  270700   0.99472314   0.19384892    20.581435    22.266996    0.2608188 
  270800   0.98115717   0.19192736    20.587617    22.250912   0.17234462 
  270900   0.97679388   0.19026812    20.596446    22.251538   0.20016095 
  271000   0.98271689    0.1895672    20.578513    22.241787   0.31351256 
  271100   0.98372481   0.19144506     20.57711    22.243774   0.47277181 
  271200   0.98938868   0.19206393    20.584446    22.260222   0.14886028 
  271300   0.98918053   0.19047841    20.593621    22.267499   0.46315544 
  271400    1.0004745   0.18881795    20.594606     22.28376   0.45214609 
  271500    1.0261531   0.18884709    20.577288     22.30498   0.45877302 
  271600     1.005294   0.18878319     20.60276    22.299107   0.40935916 
  271700    0.9970809    0.1902473    20.597589    22.283083   0.36223964 
  271800    1.0093102   0.19226657    20.591868    22.297721  0.071840593 
  271900    1.0230595   0.19263767    20.579456    22.306299   0.40431772 
  272000    1.0060162   0.19229321    20.588256    22.289196   0.23866915 
Loop time of 0.46592 on 4 procs (4 MPI x 1 OpenMP) for 2000 steps with 4000 atoms

Pair  time (%) = 0.137375 (29.4848)
Bond  time (%) = 0.045342 (9.73173)
Neigh time (%) = 0.0264257 (5.67172)
Comm  time (%) = 0.0917922 (19.7013)
Outpt time (%) = 0.0011183 (0.24002)
Other time (%) = 0.163866 (35.1705)

Nlocal:    1000 ave 1043 max 962 min
Histogram: 1 0 0 1 0 1 0 0 0 1
Nghost:    1088 ave 1154 max 1051 min
Histogram: 1 1 0 1 0 0 0 0 0 1
Neighs:    3112.5 ave 3284 max 2919 min
Histogram: 1 0 0 0 1 0 1 0 0 1

Total # of neighbors = 12450
Ave neighs/atom = 3.1125
Ave special neighs/atom = 5.925
Neighbor list builds = 41
Dangerous builds = 0
shell          head -n 2 Temp.txt | tail -n 1 >> Tempfile.txt
shell          head -n 2 Bond.txt | tail -n 1 >> Bondfile.txt
next           myTempStr
next           myBondStr
if "${myBond} <= 0" then "jump imdinput.txt nobonds"
jump           imdinput.txt loop2here

# specifies the run length in timesteps
run            2000
WARNING: Use special bonds = 0,1,1 with bond style fene (../bond_fene.cpp:188)
Memory usage per processor = 5.58785 Mbytes
Step Temp E_pair E_mol TotEng Press 
  272000    1.0060162   0.19229321    20.588256    22.289196   0.23866915 
  272100    1.0171662   0.19204297    20.579585    22.296996   0.39686198 
  272200    1.0149422   0.19703174    20.602383    22.321447   0.19097376 
  272300     1.016917   0.20116821    20.586709    22.312871   0.58473598 
  272400    1.0130567   0.20542596    20.585295    22.309926   0.29088888 
  272500    1.0098907   0.20718433    20.586613    22.308255   0.64917048 
  272600   0.99569758   0.20845591    20.597329    22.298958   0.23006062 
  272700   0.99489452   0.20674567    20.579004    22.277718   0.31838307 
  272800   0.98758794   0.20478684    20.586359    22.272158   0.39441601 
  272900    1.0035067   0.20365525    20.584667    22.293206   0.44523583 
  273000    1.0031064   0.20066406    20.589838    22.294785   0.36969215 
  273100    1.0032796   0.19981774    20.588037    22.292398   0.44756878 
  273200    1.0057775   0.19717298    20.584258     22.28972   0.54438182 
  273300   0.99631737   0.19922783    20.594948    22.288278   0.23836918 
  273400     0.998325   0.19784576    20.593345    22.288304   0.28663698 
  273500   0.99906959   0.19878672    20.585176    22.282193   0.38231075 
  273600   0.98906036   0.19919158    20.584706    22.267117   0.14749972 
  273700   0.98865412   0.19894136    20.573507    22.255059   0.45736992 
  273800   0.98578648   0.19989348    20.583043    22.261247   0.44527398 
  273900   0.99201162   0.19663614    20.581623    22.265905   0.36795701 
  274000   0.98159438   0.19549022    20.598969    22.266482   0.22245533 
Loop time of 0.474106 on 4 procs (4 MPI x 1 OpenMP) for 2000 steps with 4000 atoms

Pair  time (%) = 0.13958 (29.4407)
Bond  time (%) = 0.0454609 (9.58877)
Neigh time (%) = 0.0278255 (5.86905)
Comm  time (%) = 0.0943501 (19.9006)
Outpt time (%) = 0.00108695 (0.229263)
Other time (%) = 0.165802 (34.9716)

Nlocal:    1000 ave 1022 max 986 min
Histogram: 2 0 0 0 1 0 0 0 0 1
Nghost:    1078.25 ave 1113 max 1042 min
Histogram: 1 1 0 0 0 0 0 0 0 2
Neighs:    3149 ave 3260 max 3011 min
Histogram: 1 0 0 0 1 0 0 1 0 1

Total # of neighbors = 12596
Ave neighs/atom = 3.149
Ave special neighs/atom = 5.925
Neighbor list builds = 43
Dangerous builds = 0
shell          head -n 2 Temp.txt | tail -n 1 >> Tempfile.txt
shell          head -n 2 Bond.txt | tail -n 1 >> Bondfile.txt
next           myTempStr
next           myBondStr
if "${myBond} <= 0" then "jump imdinput.txt nobonds"
jump           imdinput.txt loop2here

# specifies the run length in timesteps
run            2000
WARNING: Use special bonds = 0,1,1 with bond style fene (../bond_fene.cpp:188)
Memory usage per processor = 5.58248 Mbytes
Step Temp E_pair E_mol TotEng Press 
  274000   0.98159438   0.19549022    20.598969    22.266482   0.22245533 
  274100   0.99632372   0.19564125     20.58381    22.273564   0.49949372 
  274200      1.00556   0.19598617     20.57081    22.274759   0.51507394 
  274300   0.99305178   0.19701489    20.569569    22.255789   0.13866244 
  274400   0.98414291   0.19690061    20.588309    22.261055   0.49279025 
  274500   0.99575751   0.19815823    20.578754    22.270175   0.06686107 
  274600   0.99461419   0.19535161    20.584362    22.271262   0.59291898 
  274700   0.99845213   0.19530031    20.574801    22.267405   0.45340549 
  274800   0.99106906   0.19607529     20.58256    22.264867   0.36984522 
  274900   0.99470681   0.19512646    20.580764    22.267577 -0.0035443648 
  275000    1.0059615   0.19109891     20.57261    22.272274   0.27248466 
  275100    1.0008619   0.18680249    20.583727    22.271447   0.55978224 
  275200    1.0094849   0.18501015    20.594035    22.292894   0.21346988 
  275300   0.99857941   0.18636157    20.590822    22.274678   0.27420106 
  275400   0.99146137   0.18949572    20.595411    22.271727   0.49133554 
  275500    1.0005907   0.18666603    20.583098    22.270275   0.32882377 
  275600    1.0063526   0.18471511    20.596635    22.290502   0.22006838 
  275700    1.0067581   0.18792522    20.591532    22.289217   0.12998148 
  275800   0.99679085   0.19475485    20.591177    22.280744   0.38947261 
  275900   0.98524655   0.20118953    20.596652    22.275342   0.25013414 
  276000   0.99386581   0.20597733    20.598251    22.294654   0.12822509 
Loop time of 0.519713 on 4 procs (4 MPI x 1 OpenMP) for 2000 steps with 4000 atoms

Pair  time (%) = 0.147804 (28.4396)
Bond  time (%) = 0.0507666 (9.7682)
Neigh time (%) = 0.0296008 (5.6956)
Comm  time (%) = 0.109522 (21.0735)
Outpt time (%) = 0.00118661 (0.22832)
Other time (%) = 0.180833 (34.7948)

Nlocal:    1000 ave 1042 max 965 min
Histogram: 1 1 0 0 0 0 1 0 0 1
Nghost:    1068 ave 1097 max 1029 min
Histogram: 1 0 0 0 0 1 0 1 0 1
Neighs:    3166.25 ave 3295 max 3050 min
Histogram: 1 1 0 0 0 0 0 1 0 1

Total # of neighbors = 12665
Ave neighs/atom = 3.16625
Ave special neighs/atom = 5.925
Neighbor list builds = 42
Dangerous builds = 0
shell          head -n 2 Temp.txt | tail -n 1 >> Tempfile.txt
shell          head -n 2 Bond.txt | tail -n 1 >> Bondfile.txt
next           myTempStr
next           myBondStr
if "${myBond} <= 0" then "jump imdinput.txt nobonds"
jump           imdinput.txt loop2here

# specifies the run length in timesteps
run            2000
WARNING: Use special bonds = 0,1,1 with bond style fene (../bond_fene.cpp:188)
Memory usage per processor = 5.58834 Mbytes
Step Temp E_pair E_mol TotEng Press 
  276000   0.99386581   0.20597733    20.598251    22.294654   0.12822509 
  276100    1.0151552   0.20692163     20.57951    22.308784    0.3972422 
  276200   0.98790406   0.20977845    20.599873    22.291137   0.24750956 
  276300    1.0053089   0.20634943    20.599509    22.313445   0.30662549 
  276400     1.016145   0.20353216    20.596968    22.324336   0.34546248 
  276500   0.99930544   0.20379529    20.599996    22.302375   0.55617386 
  276600   0.99613175   0.20126844    20.599783    22.294875   0.19414885 
  276700    1.0061241   0.19968222    20.583645    22.292136   0.61297948 
  276800    1.0174836   0.19768767    20.578236    22.301768   0.55184082 
  276900   0.99061829   0.19456307    20.625104    22.305223   0.31469637 
  277000   0.98664038   0.19322715    20.619433     22.29225   0.20216077 
  277100    1.0033995   0.19400077    20.600369    22.299093   0.57995894 
  277200   0.99338533   0.19444561    20.610609     22.29476   0.16511921 
  277300   0.99476636   0.19322153    20.596842     22.28184     0.522584 
  277400   0.99399712   0.19347044    20.603818    22.287912   0.66536135 
  277500    1.0174185   0.19493248    20.606959    22.327637   0.24625753 
  277600    1.0124187   0.19292709    20.607097    22.318272   0.17907519 
  277700    1.0276332    0.1933979    20.596286    22.330748   0.37076772 
  277800    1.0135864   0.19930983    20.606429    22.325739   0.20400167 
  277900    1.0273662   0.19949722    20.576277    22.316438   0.32928149 
  278000    1.0065087   0.20393729    20.615755    22.329078   0.14156165 
Loop time of 0.665729 on 4 procs (4 MPI x 1 OpenMP) for 2000 steps with 4000 atoms

Pair  time (%) = 0.177243 (26.624)
Bond  time (%) = 0.0644408 (9.67974)
Neigh time (%) = 0.0353282 (5.3067)
Comm  time (%) = 0.157725 (23.692)
Outpt time (%) = 0.00142509 (0.214064)
Other time (%) = 0.229566 (34.4835)

Nlocal:    1000 ave 1033 max 946 min
Histogram: 1 0 0 0 0 0 1 0 1 1
Nghost:    1060.75 ave 1076 max 1043 min
Histogram: 1 0 1 0 0 0 0 0 0 2
Neighs:    3161.25 ave 3496 max 2887 min
Histogram: 1 0 0 1 1 0 0 0 0 1

Total # of neighbors = 12645
Ave neighs/atom = 3.16125
Ave special neighs/atom = 5.925
Neighbor list builds = 42
Dangerous builds = 0
shell          head -n 2 Temp.txt | tail -n 1 >> Tempfile.txt
shell          head -n 2 Bond.txt | tail -n 1 >> Bondfile.txt
next           myTempStr
next           myBondStr
if "${myBond} <= 0" then "jump imdinput.txt nobonds"
jump           imdinput.txt loop2here

# specifies the run length in timesteps
run            2000
WARNING: Use special bonds = 0,1,1 with bond style fene (../bond_fene.cpp:188)
Memory usage per processor = 5.58566 Mbytes
Step Temp E_pair E_mol TotEng Press 
  278000    1.0065087   0.20393729    20.615755    22.329078   0.14156165 
  278100    1.0237167   0.20099074    20.590883    22.327065   0.76060646 
  278200    1.0169438   0.19905799    20.595242    22.319334   0.32219869 
  278300    1.0304828   0.19476529    20.601647     22.34175   0.31822923 
  278400    1.0296657   0.19315271    20.591538    22.328803      0.34531 
  278500     1.001701   0.19590338    20.610091     22.30817    0.2625613 
  278600    1.0150173   0.19390247    20.597589    22.313637   0.37980924 
  278700     1.025875   0.19443982    20.583686    22.316554   0.56085878 
  278800    1.0074019   0.19677338    20.598697    22.306195   0.19360405 
  278900   0.99824229   0.19816826    20.605472     22.30063   0.25553802 
  279000   0.99703991   0.19864692    20.614323    22.308156   0.27329809 
  279100    1.0000037   0.20287183     20.57988    22.282382   0.42517221 
  279200   0.98113834    0.2055144    20.612783    22.289637   0.31081704 
  279300    1.0147092   0.20430028    20.586922    22.312905   0.32546742 
  279400    1.0099533   0.20158901    20.602275    22.318415    0.2789827 
  279500    1.0075997   0.19956695    20.594713    22.305301   0.22208372 
  279600    1.0000707   0.20033201    20.603658    22.303721   0.50153017 
  279700   0.99172633   0.19908743    20.611916    22.298221   0.44262578 
  279800    0.9969143   0.19469342    20.599083    22.288774   0.49422536 
  279900    1.0080547   0.18874891     20.59187    22.292323   0.11074771 
  280000   0.99222501   0.18878305    20.606165    22.282914   0.11978727 
Loop time of 0.662893 on 4 procs (4 MPI x 1 OpenMP) for 2000 steps with 4000 atoms

Pair  time (%) = 0.177196 (26.7306)
Bond  time (%) = 0.0638126 (9.62637)
Neigh time (%) = 0.035327 (5.32921)
Comm  time (%) = 0.156755 (23.6472)
Outpt time (%) = 0.00149232 (0.225122)
Other time (%) = 0.22831 (34.4415)

Nlocal:    1000 ave 1042 max 957 min
Histogram: 1 0 0 1 0 0 1 0 0 1
Nghost:    1074 ave 1094 max 1040 min
Histogram: 1 0 0 0 0 0 0 2 0 1
Neighs:    3069.75 ave 3445 max 2789 min
Histogram: 1 1 0 0 0 1 0 0 0 1

Total # of neighbors = 12279
Ave neighs/atom = 3.06975
Ave special neighs/atom = 5.925
Neighbor list builds = 42
Dangerous builds = 0
shell          head -n 2 Temp.txt | tail -n 1 >> Tempfile.txt
shell          head -n 2 Bond.txt | tail -n 1 >> Bondfile.txt
next           myTempStr
next           myBondStr
if "${myBond} <= 0" then "jump imdinput.txt nobonds"
jump           imdinput.txt loop2here

# specifies the run length in timesteps
run            2000
WARNING: Use special bonds = 0,1,1 with bond style fene (../bond_fene.cpp:188)
Memory usage per processor = 5.58688 Mbytes
Step Temp E_pair E_mol TotEng Press 
  280000   0.99222501   0.18878305    20.606165    22.282914   0.11978727 
  280100    1.0048857   0.18547978     20.58294    22.275372   0.39605286 
  280200   0.99662534   0.18715464    20.602746    22.284465   0.32287822 
  280300   0.99445036   0.18710523    20.596665    22.275073    0.3947554 
  280400   0.98753914   0.18598578    20.605028    22.271952   0.37134762 
  280500    1.0036866   0.18693669      20.5891     22.28119   0.16158659 
  280600   0.99024814   0.18972496    20.596304    22.271029   0.35871215 
  280700   0.99078398   0.19131787     20.59257    22.269692   0.54726984 
  280800   0.99339994   0.19170846    20.591916    22.273352   0.45090705 
  280900   0.98854532   0.19316595     20.59183    22.267443   0.38717293 
  281000   0.98409414   0.19207904    20.600786    22.268637   0.25661788 
  281100   0.98795941   0.18929403    20.601886    22.272749   0.18240793 
  281200   0.99027332   0.18521555    20.590181    22.260436   0.44810582 
  281300    1.0125511   0.18408045    20.591867    22.294395   0.27879705 
  281400     1.011145   0.18831933     20.59297    22.297627   0.36736428 
  281500    1.0185631   0.18944942    20.588903    22.305815   0.21378321 
  281600    1.0034055   0.19307138    20.592296      22.2901   0.24767342 
  281700   0.98758438    0.1956752    20.595844    22.272525   0.36350548 
  281800   0.98559954    0.1949247     20.59243    22.265384   0.34407985 
  281900   0.98018252   0.19246417    20.599325    22.261696   0.25127804 
  282000   0.99348821   0.18834801    20.595466    22.273674   0.37030134 
Loop time of 0.670489 on 4 procs (4 MPI x 1 OpenMP) for 2000 steps with 4000 atoms

Pair  time (%) = 0.174418 (26.0136)
Bond  time (%) = 0.0624426 (9.313)
Neigh time (%) = 0.0356631 (5.31897)
Comm  time (%) = 0.166899 (24.8921)
Outpt time (%) = 0.00147772 (0.220394)
Other time (%) = 0.229588 (34.2419)

Nlocal:    1000 ave 1041 max 965 min
Histogram: 1 0 0 0 2 0 0 0 0 1
Nghost:    1085.25 ave 1113 max 1068 min
Histogram: 2 0 0 0 0 1 0 0 0 1
Neighs:    3112.5 ave 3387 max 2938 min
Histogram: 1 0 1 1 0 0 0 0 0 1

Total # of neighbors = 12450
Ave neighs/atom = 3.1125
Ave special neighs/atom = 5.925
Neighbor list builds = 42
Dangerous builds = 0
shell          head -n 2 Temp.txt | tail -n 1 >> Tempfile.txt
shell          head -n 2 Bond.txt | tail -n 1 >> Bondfile.txt
next           myTempStr
next           myBondStr
if "${myBond} <= 0" then "jump imdinput.txt nobonds"
jump           imdinput.txt loop2here

# specifies the run length in timesteps
run            2000
WARNING: Use special bonds = 0,1,1 with bond style fene (../bond_fene.cpp:188)
Memory usage per processor = 5.58688 Mbytes
Step Temp E_pair E_mol TotEng Press 
  282000   0.99348821   0.18834801    20.595466    22.273674   0.37030134 
  282100   0.99453495   0.19013796    20.608343     22.28991   0.29645674 
  282200    1.0014992   0.19262539    20.599911     22.29441   0.22927038 
  282300    1.0088125   0.19127853    20.586963    22.291082   0.31510784 
  282400    1.0048385   0.19286051    20.593983    22.293724   0.48365728 
  282500    1.0057344   0.19321758    20.607819    22.309261  0.093796808 
  282600   0.99364104   0.19490202    20.604623    22.289614   0.29823761 
  282700    1.0086758   0.19728869    20.600804    22.310728   0.43361719 
  282800    1.0097077   0.19691788     20.59581    22.306911   0.41524271 
  282900    1.0105417   0.19748569    20.609462    22.322382   0.16173824 
  283000    1.0130108   0.19902235    20.598907    22.317066   0.53253739 
  283100    1.0195728   0.20124798    20.593889    22.324114   0.45489358 
  283200    1.0205995   0.19849131    20.597755    22.326763   0.21265961 
  283300    1.0181282   0.19543459    20.615085     22.33733   0.20101949 
  283400    1.0226326    0.1969946    20.606163    22.336723   0.19710298 
  283500    1.0162204   0.20047155    20.599725    22.324146   0.28467117 
  283600    1.0210748   0.19938908    20.595787    22.326405    0.3768805 
  283700    1.0289974   0.19706593    20.593082    22.333259   0.47648482 
  283800    1.0142792   0.19426276    20.609286    22.324588   0.23089188 
  283900    1.0106933   0.19458576    20.618031    22.328278   0.31943389 
  284000   0.99997927   0.19577877    20.622803    22.318176  0.048273409 
Loop time of 0.667718 on 4 procs (4 MPI x 1 OpenMP) for 2000 steps with 4000 atoms

Pair  time (%) = 0.175901 (26.3436)
Bond  time (%) = 0.0641346 (9.60504)
Neigh time (%) = 0.0356584 (5.34034)
Comm  time (%) = 0.160023 (23.9656)
Outpt time (%) = 0.00152189 (0.227923)
Other time (%) = 0.230479 (34.5175)

Nlocal:    1000 ave 1024 max 987 min
Histogram: 1 1 1 0 0 0 0 0 0 1
Nghost:    1085 ave 1114 max 1068 min
Histogram: 1 1 0 1 0 0 0 0 0 1
Neighs:    3044.5 ave 3109 max 2942 min
Histogram: 1 0 0 0 1 0 0 0 0 2

Total # of neighbors = 12178
Ave neighs/atom = 3.0445
Ave special neighs/atom = 5.925
Neighbor list builds = 42
Dangerous builds = 0
shell          head -n 2 Temp.txt | tail -n 1 >> Tempfile.txt
shell          head -n 2 Bond.txt | tail -n 1 >> Bondfile.txt
next           myTempStr
next           myBondStr
if "${myBond} <= 0" then "jump imdinput.txt nobonds"
jump           imdinput.txt loop2here

# specifies the run length in timesteps
run            2000
WARNING: Use special bonds = 0,1,1 with bond style fene (../bond_fene.cpp:188)
Memory usage per processor = 5.58248 Mbytes
Step Temp E_pair E_mol TotEng Press 
  284000   0.99997927   0.19577877    20.622803    22.318176  0.048273409 
  284100    0.9891766   0.19629725    20.608383    22.288074    0.6205122 
  284200   0.98848683   0.19544778    20.607741    22.285548   0.39119381 
  284300    1.0122578   0.19207974    20.590432    22.300519   0.23791175 
  284400    1.0168855    0.1905949     20.57475    22.290292   0.40477217 
  284500    1.0075299   0.19188668    20.601231    22.304034   0.11423522 
  284600   0.99276151   0.19307181    20.594274    22.276115   0.25958881 
  284700    1.0003175   0.19019587    20.595182    22.285479    0.2014984 
  284800   0.99823151   0.19030214    20.575583    22.262858    0.4858942 
  284900   0.99591785   0.18638994    20.572809    22.252703    0.3813657 
  285000   0.98850033   0.18666559    20.585159    22.254204   0.53623063 
  285100   0.97787793   0.19277764    20.570261    22.229488   0.44977667 
  285200   0.97239343   0.19544861    20.594192    22.247866 -0.048655639 
  285300   0.97269673   0.19418532     20.59992    22.252785   0.42279859 
  285400   0.97245264   0.19217719    20.600136    22.250627   0.41747978 
  285500   0.97410864   0.19056277    20.598733    22.250093   0.26115293 
  285600    1.0054439   0.18819251    20.574195    22.270177   0.31986148 
  285700   0.99250153   0.18686662    20.593663     22.26891   0.53702091 
  285800   0.98254518   0.18923756    20.599824    22.262511   0.37476457 
  285900   0.98964499   0.18774214    20.576358    22.248196    0.2894331 
  286000   0.99184409   0.18567723    20.587063    22.260135   0.22189298 
Loop time of 0.634307 on 4 procs (4 MPI x 1 OpenMP) for 2000 steps with 4000 atoms

Pair  time (%) = 0.168854 (26.6202)
Bond  time (%) = 0.0626301 (9.87379)
Neigh time (%) = 0.0336475 (5.30462)
Comm  time (%) = 0.154403 (24.3421)
Outpt time (%) = 0.00122285 (0.192785)
Other time (%) = 0.213549 (33.6665)

Nlocal:    1000 ave 1016 max 984 min
Histogram: 2 0 0 0 0 0 0 0 0 2
Nghost:    1062.5 ave 1091 max 1034 min
Histogram: 1 1 0 0 0 0 0 0 1 1
Neighs:    3038.75 ave 3202 max 2906 min
Histogram: 1 1 0 0 0 0 1 0 0 1

Total # of neighbors = 12155
Ave neighs/atom = 3.03875
Ave special neighs/atom = 5.925
Neighbor list builds = 41
Dangerous builds = 0
shell          head -n 2 Temp.txt | tail -n 1 >> Tempfile.txt
shell          head -n 2 Bond.txt | tail -n 1 >> Bondfile.txt
next           myTempStr
next           myBondStr
if "${myBond} <= 0" then "jump imdinput.txt nobonds"
jump           imdinput.txt loop2here

# specifies the run length in timesteps
run            2000
WARNING: Use special bonds = 0,1,1 with bond style fene (../bond_fene.cpp:188)
Memory usage per processor = 5.58199 Mbytes
Step Temp E_pair E_mol TotEng Press 
  286000   0.99184409   0.18567723    20.587063    22.260135   0.22189298 
  286100   0.98294241   0.18402067    20.595099    22.253164   0.33785064 
  286200   0.99604207   0.18499725      20.5889    22.267586   0.23132206 
  286300    1.0071759   0.18750218    20.585105    22.282993   0.32414274 
  286400    1.0054354   0.18865981    20.579415    22.275851    0.2939347 
  286500   0.99972304   0.18774609    20.594518    22.281474   0.30837375 
  286600   0.99880942   0.18896563    20.593489    22.280294   0.23231059 
  286700    1.0039588   0.18781107    20.592311    22.285684   0.45938712 
  286800    1.0167313   0.18828609    20.587502    22.300504   0.36423922 
  286900    1.0143488   0.18633726    20.615028    22.322508    0.1346844 
  287000    1.0174932   0.18993539    20.602038    22.317832   0.38737433 
  287100    1.0021493   0.19758405    20.618642    22.319074  -0.14319507 
  287200    1.0172906   0.19771575    20.606363    22.329633     0.619227 
  287300    1.0122457   0.19332231     20.60177    22.313081   0.43398152 
  287400     1.020292   0.18529952    20.597582    22.312937   0.52917935 
  287500    1.0146281   0.18061615    20.629186    22.331364   0.37451373 
  287600    1.0156191   0.17910626    20.612061    22.314215    0.2539143 
  287700    1.0210942   0.18186662    20.596637    22.309762 -0.0029300179 
  287800    1.0167311   0.18932493    20.593458    22.307499   0.43181384 
  287900    1.0225097   0.19571607    20.578811    22.307908   0.47745265 
  288000    1.0123075   0.19788833     20.58724     22.30321   0.52594312 
Loop time of 0.611907 on 4 procs (4 MPI x 1 OpenMP) for 2000 steps with 4000 atoms

Pair  time (%) = 0.164974 (26.9606)
Bond  time (%) = 0.0603671 (9.8654)
Neigh time (%) = 0.0335253 (5.47882)
Comm  time (%) = 0.149162 (24.3766)
Outpt time (%) = 0.0011636 (0.19016)
Other time (%) = 0.202715 (33.1284)

Nlocal:    1000 ave 1027 max 957 min
Histogram: 1 0 0 0 0 0 1 0 1 1
Nghost:    1078.75 ave 1104 max 1063 min
Histogram: 1 1 0 1 0 0 0 0 0 1
Neighs:    3070.5 ave 3234 max 2823 min
Histogram: 1 0 0 0 0 1 0 0 1 1

Total # of neighbors = 12282
Ave neighs/atom = 3.0705
Ave special neighs/atom = 5.925
Neighbor list builds = 42
Dangerous builds = 0
shell          head -n 2 Temp.txt | tail -n 1 >> Tempfile.txt
shell          head -n 2 Bond.txt | tail -n 1 >> Bondfile.txt
next           myTempStr
next           myBondStr
if "${myBond} <= 0" then "jump imdinput.txt nobonds"
jump           imdinput.txt loop2here

# specifies the run length in timesteps
run            2000
WARNING: Use special bonds = 0,1,1 with bond style fene (../bond_fene.cpp:188)
Memory usage per processor = 5.5837 Mbytes
Step Temp E_pair E_mol TotEng Press 
  288000    1.0123075   0.19788833     20.58724     22.30321   0.52594312 
  288100    1.0066021   0.19738814     20.59979    22.306704   0.26446277 
  288200    1.0069928   0.19664961     20.58756    22.294321   0.48183278 
  288300    1.0010344   0.20007923    20.581738    22.282994   0.24214762 
  288400    1.0098781   0.20213185    20.575295    22.291866   0.44341625 
  288500     1.003834   0.20176849    20.591639    22.298782   0.37384431 
  288600    1.0083251   0.20088567    20.575778    22.288773   0.17270105 
  288700    1.0054913   0.20332748    20.591435    22.302622   0.19480521 
  288800    1.0025411   0.20418057    20.595664     22.30328   0.37214009 
  288900   0.99894318   0.20460252    20.590032    22.292675   0.40437529 
  289000   0.98784626   0.20622813    20.598393     22.28602   0.23469559 
  289100   0.99474294   0.20478334    20.583081    22.279605   0.25960629 
  289200   0.99815014   0.20346075     20.58498    22.285291   0.36714691 
  289300    1.0067934   0.20229651    20.586068    22.298177   0.29639596 
  289400    1.0147856   0.20033117    20.584348    22.306477   0.37847119 
  289500    1.0048905   0.19779531    20.581567    22.286321   0.28052293 
  289600    1.0029389   0.19892626    20.594927    22.297885   0.31855208 
  289700    1.0061428   0.20079804    20.590487    22.300122   0.29985074 
  289800   0.98776141   0.19976939    20.604318    22.285359   0.23591424 
  289900   0.99302996    0.1980012    20.603104    22.290278   0.27284646 
  290000    1.0016255   0.19879742    20.589162    22.290022    0.2961512 
Loop time of 0.617047 on 4 procs (4 MPI x 1 OpenMP) for 2000 steps with 4000 atoms

Pair  time (%) = 0.172269 (27.9183)
Bond  time (%) = 0.0607822 (9.85049)
Neigh time (%) = 0.0337526 (5.47002)
Comm  time (%) = 0.142916 (23.1613)
Outpt time (%) = 0.00118214 (0.19158)
Other time (%) = 0.206145 (33.4083)

Nlocal:    1000 ave 1021 max 954 min
Histogram: 1 0 0 0 0 0 0 0 2 1
Nghost:    1082.5 ave 1141 max 1032 min
Histogram: 1 1 0 0 0 0 0 1 0 1
Neighs:    3125.75 ave 3337 max 2807 min
Histogram: 1 0 0 0 0 0 1 1 0 1

Total # of neighbors = 12503
Ave neighs/atom = 3.12575
Ave special neighs/atom = 5.925
Neighbor list builds = 42
Dangerous builds = 0
shell          head -n 2 Temp.txt | tail -n 1 >> Tempfile.txt
shell          head -n 2 Bond.txt | tail -n 1 >> Bondfile.txt
next           myTempStr
next           myBondStr
if "${myBond} <= 0" then "jump imdinput.txt nobonds"
jump           imdinput.txt loop2here

# specifies the run length in timesteps
run            2000
WARNING: Use special bonds = 0,1,1 with bond style fene (../bond_fene.cpp:188)
Memory usage per processor = 5.5815 Mbytes
Step Temp E_pair E_mol TotEng Press 
  290000    1.0016255   0.19879742    20.589162    22.290022    0.2961512 
  290100   0.99746932   0.20022797     20.58811    22.284168   0.51398389 
  290200   0.99701025   0.19760317    20.595356    22.288101   0.17258134 
  290300   0.99637925    0.1933766    20.601736    22.289308   0.49338917 
  290400    1.0118741   0.18921769    20.595958    22.302607    0.2817888 
  290500    1.0031399   0.18921285    20.602814    22.296361   0.31197089 
  290600    1.0016315   0.18964031    20.599598     22.29131   0.24958757 
  290700    1.0192919   0.18946598    20.585458     22.30348   0.32826952 
  290800   0.99403065   0.19195412    20.610616    22.293243   0.47550537 
  290900    1.0127858   0.19471947    20.586526    22.300044   0.15667249 
  291000    1.0157418   0.19406739    20.602656    22.319955   0.43437578 
  291100    1.0298582   0.19386801    20.585347    22.323616   0.24368423 
  291200    1.0430948   0.19066613    20.596306    22.351223   0.37988513 
  291300    1.0310325   0.18754565    20.591521    22.325229   0.44054637 
  291400    1.0132151   0.18687728    20.603108    22.309428   0.34647191 
  291500    1.0157699   0.18747121    20.598515     22.30926  0.049028541 
  291600    1.0085978    0.1907384    20.594453     22.29771   0.32302605 
  291700   0.99502035   0.19006473    20.601591    22.283813    0.1442191 
  291800   0.99679278   0.18536546     20.60479    22.284971   0.50054367 
  291900    1.0107436   0.18328559    20.585971    22.284993   0.43153568 
  292000   0.99716602    0.1862125    20.597815    22.279403   0.35246115 
Loop time of 0.625618 on 4 procs (4 MPI x 1 OpenMP) for 2000 steps with 4000 atoms

Pair  time (%) = 0.171398 (27.3966)
Bond  time (%) = 0.0609114 (9.7362)
Neigh time (%) = 0.0338907 (5.41716)
Comm  time (%) = 0.149402 (23.8807)
Outpt time (%) = 0.00112772 (0.180257)
Other time (%) = 0.208888 (33.3891)

Nlocal:    1000 ave 1036 max 975 min
Histogram: 2 0 0 0 0 0 1 0 0 1
Nghost:    1057.5 ave 1071 max 1042 min
Histogram: 1 0 0 0 1 0 1 0 0 1
Neighs:    3057.5 ave 3237 max 2842 min
Histogram: 1 0 1 0 0 0 0 0 0 2

Total # of neighbors = 12230
Ave neighs/atom = 3.0575
Ave special neighs/atom = 5.925
Neighbor list builds = 41
Dangerous builds = 0
shell          head -n 2 Temp.txt | tail -n 1 >> Tempfile.txt
shell          head -n 2 Bond.txt | tail -n 1 >> Bondfile.txt
next           myTempStr
next           myBondStr
if "${myBond} <= 0" then "jump imdinput.txt nobonds"
jump           imdinput.txt loop2here

# specifies the run length in timesteps
run            2000
WARNING: Use special bonds = 0,1,1 with bond style fene (../bond_fene.cpp:188)
Memory usage per processor = 5.58517 Mbytes
Step Temp E_pair E_mol TotEng Press 
  292000   0.99716602    0.1862125    20.597815    22.279403   0.35246115 
  292100    1.0039285   0.18743496    20.580031    22.272983   0.34395567 
  292200   0.98874904   0.18897351    20.595855    22.267582   0.18253593 
  292300   0.99232006   0.18810511    20.592543    22.268756    0.3532872 
  292400   0.99217187    0.1866003    20.609451    22.283937  -0.07140532 
  292500   0.99334337   0.18650264    20.613785     22.28993   0.25485299 
  292600    1.0140313   0.18836309    20.590536    22.299566   0.44590163 
  292700    1.0111163   0.18841641    20.606751    22.311463   0.49134147 
  292800   0.99844524   0.18753932    20.617525    22.302358   0.35977686 
  292900    1.0123454   0.18727577    20.587336     22.29275   0.41248169 
  293000    1.0049168   0.18861707    20.607058    22.302674  0.020763345 
  293100     1.011299   0.18828258    20.589122    22.293974   0.51026058 
  293200    1.0163242   0.18696337    20.578399    22.289468   0.12014765 
  293300    1.0070927   0.18296196    20.598702    22.291925   0.15080677 
  293400    1.0087382   0.18360857    20.604857    22.301195   0.34181249 
  293500    1.0160119   0.18255639    20.578063    22.284256   0.53419924 
  293600    1.0053567   0.18137662    20.583557    22.272592   0.33564683 
  293700    1.0056528   0.18199634    20.596241    22.286339   0.15255513 
  293800    1.0006185   0.18360455    20.587503    22.271661   0.22497903 
  293900   0.99885826   0.18437003    20.587068     22.26935   0.33907186 
  294000   0.97921415   0.18805736    20.606631    22.263142   0.56360379 
Loop time of 0.621052 on 4 procs (4 MPI x 1 OpenMP) for 2000 steps with 4000 atoms

Pair  time (%) = 0.167781 (27.0156)
Bond  time (%) = 0.0608356 (9.79558)
Neigh time (%) = 0.0335173 (5.39686)
Comm  time (%) = 0.151303 (24.3624)
Outpt time (%) = 0.00112361 (0.18092)
Other time (%) = 0.206491 (33.2486)

Nlocal:    1000 ave 1025 max 975 min
Histogram: 1 0 1 0 0 0 0 1 0 1
Nghost:    1096.75 ave 1111 max 1076 min
Histogram: 1 0 0 0 1 0 0 0 1 1
Neighs:    3076.5 ave 3194 max 2892 min
Histogram: 1 0 0 0 0 0 1 1 0 1

Total # of neighbors = 12306
Ave neighs/atom = 3.0765
Ave special neighs/atom = 5.925
Neighbor list builds = 41
Dangerous builds = 0
shell          head -n 2 Temp.txt | tail -n 1 >> Tempfile.txt
shell          head -n 2 Bond.txt | tail -n 1 >> Bondfile.txt
next           myTempStr
next           myBondStr
if "${myBond} <= 0" then "jump imdinput.txt nobonds"
jump           imdinput.txt loop2here

# specifies the run length in timesteps
run            2000
WARNING: Use special bonds = 0,1,1 with bond style fene (../bond_fene.cpp:188)
Memory usage per processor = 5.5815 Mbytes
Step Temp E_pair E_mol TotEng Press 
  294000   0.97921415   0.18805736    20.606631    22.263142   0.56360379 
  294100   0.99511658   0.18922555    20.590304    22.271831   0.33716452 
  294200   0.99861126   0.18826629    20.591835    22.277644   0.37530671 
  294300    1.0000003   0.18879273    20.584342     22.27276   0.22836101 
  294400   0.99722678   0.18743242    20.581184    22.264083   0.20412879 
  294500    1.0007842   0.18641034    20.578746    22.265957    0.2558261 
  294600   0.99690335   0.18306726    20.584371     22.26242   0.49812106 
  294700   0.99488863   0.18364252    20.593694    22.269297    0.3795847 
  294800    1.0182703   0.18616445    20.570507    22.283695   0.22098413 
  294900    1.0261239   0.18542522    20.567849    22.292076   0.41650874 
  295000    1.0101296   0.18753055    20.586734    22.289081   0.34993495 
  295100    1.0098915   0.18990762    20.576374     22.28074   0.42356743 
  295200    1.0052794   0.19229515    20.594125    22.293963   0.21925973 
  295300   0.98243889   0.19430093    20.599717    22.267308   0.29773319 
  295400   0.99714479   0.19582981    20.583569    22.274742   0.50213305 
  295500    1.0005903   0.19622707    20.592405    22.289142   0.24972056 
  295600    1.0178452   0.19716575    20.576901    22.300453   0.27991988 
  295700    1.0169403   0.19838329    20.567081    22.290494   0.64514195 
  295800     1.001665   0.19586103    20.597317      22.2953   0.20877417 
  295900    0.9883594   0.19296923    20.601266    22.276404   0.37540243 
  296000   0.99319478   0.19328118    20.580985    22.263686   0.67946166 
Loop time of 0.628704 on 4 procs (4 MPI x 1 OpenMP) for 2000 steps with 4000 atoms

Pair  time (%) = 0.171863 (27.3361)
Bond  time (%) = 0.0619408 (9.85215)
Neigh time (%) = 0.0342602 (5.44933)
Comm  time (%) = 0.149636 (23.8007)
Outpt time (%) = 0.00120968 (0.192408)
Other time (%) = 0.209794 (33.3693)

Nlocal:    1000 ave 1026 max 977 min
Histogram: 1 1 0 0 0 0 0 1 0 1
Nghost:    1105.25 ave 1150 max 1036 min
Histogram: 1 0 0 0 0 1 0 0 0 2
Neighs:    3122.5 ave 3229 max 3015 min
Histogram: 1 1 0 0 0 0 0 0 1 1

Total # of neighbors = 12490
Ave neighs/atom = 3.1225
Ave special neighs/atom = 5.925
Neighbor list builds = 42
Dangerous builds = 0
shell          head -n 2 Temp.txt | tail -n 1 >> Tempfile.txt
shell          head -n 2 Bond.txt | tail -n 1 >> Bondfile.txt
next           myTempStr
next           myBondStr
if "${myBond} <= 0" then "jump imdinput.txt nobonds"
jump           imdinput.txt loop2here

# specifies the run length in timesteps
run            2000
WARNING: Use special bonds = 0,1,1 with bond style fene (../bond_fene.cpp:188)
Memory usage per processor = 5.58419 Mbytes
Step Temp E_pair E_mol TotEng Press 
  296000   0.99319478   0.19328118    20.580985    22.263686   0.67946166 
  296100   0.98487078   0.19521379    20.586095    22.258245    0.3256904 
  296200   0.98372717   0.19563501    20.579074    22.249931   0.19453921 
  296300     1.000431   0.19563596    20.569003     22.26491   0.54492613 
  296400   0.98964594   0.19242163    20.598916    22.275436   0.25460038 
  296500   0.98706398   0.18723107    20.590222    22.257679   0.24523406 
  296600   0.99874299   0.18344416    20.573737    22.254921   0.45312453 
  296700   0.98906572    0.1828462    20.589382    22.255456   0.27541172 
  296800   0.98809492   0.18529263    20.593655    22.260719    0.3096029 
  296900   0.98781366    0.1894897    20.599185    22.270025   0.37798431 
  297000   0.98848582   0.19296219    20.615914    22.291234   0.29746517 
  297100     1.003259   0.19739638    20.617497    22.319406   0.27582454 
  297200   0.99115555   0.19901745    20.621141     22.30652   0.47373011 
  297300     1.021853   0.20025876    20.608424    22.341079   0.38115063 
  297400    1.0229171   0.20135819    20.611001    22.346351  0.010514515 
  297500    1.0136038   0.19683232    20.615312     22.33217   0.37611211 
  297600     1.016412   0.19054317    20.600858    22.315638   0.56524832 
  297700    1.0244724   0.19218516    20.602121     22.33063   0.18834264 
  297800    1.0005923   0.19181172    20.608095     22.30042   0.32239438 
  297900    1.0048235   0.19157655    20.614266    22.312701   0.29560991 
  298000    1.0259748   0.19070337    20.598848    22.328129   0.20669599 
Loop time of 0.627042 on 4 procs (4 MPI x 1 OpenMP) for 2000 steps with 4000 atoms

Pair  time (%) = 0.17156 (27.3601)
Bond  time (%) = 0.0611688 (9.75514)
Neigh time (%) = 0.0337703 (5.38565)
Comm  time (%) = 0.151852 (24.2173)
Outpt time (%) = 0.00113463 (0.18095)
Other time (%) = 0.207556 (33.1009)

Nlocal:    1000 ave 1020 max 970 min
Histogram: 1 0 0 0 0 0 0 2 0 1
Nghost:    1092.5 ave 1131 max 1075 min
Histogram: 1 2 0 0 0 0 0 0 0 1
Neighs:    3090.75 ave 3242 max 2845 min
Histogram: 1 0 0 0 0 1 0 0 0 2

Total # of neighbors = 12363
Ave neighs/atom = 3.09075
Ave special neighs/atom = 5.925
Neighbor list builds = 41
Dangerous builds = 0
shell          head -n 2 Temp.txt | tail -n 1 >> Tempfile.txt
shell          head -n 2 Bond.txt | tail -n 1 >> Bondfile.txt
next           myTempStr
next           myBondStr
if "${myBond} <= 0" then "jump imdinput.txt nobonds"
jump           imdinput.txt loop2here

# specifies the run length in timesteps
run            2000
WARNING: Use special bonds = 0,1,1 with bond style fene (../bond_fene.cpp:188)
Memory usage per processor = 5.58297 Mbytes
Step Temp E_pair E_mol TotEng Press 
  298000    1.0259748   0.19070337    20.598848    22.328129   0.20669599 
  298100    1.0247358   0.18653786    20.599457    22.322714   0.38006714 
  298200    1.0226169   0.18616728    20.605747    22.325456   0.40804439 
  298300    1.0139002   0.18734072      20.5995    22.307311    0.1623726 
  298400    1.0041124   0.18719505    20.604328    22.297315   0.62400457 
  298500    1.0068644   0.18722253    20.599388     22.29653   0.20154988 
  298600   0.99968743   0.18807613    20.600666    22.287898   0.34169471 
  298700    1.0179472   0.18804488    20.581995    22.296579   0.21605906 
  298800   0.99645575   0.19082377     20.59416    22.279293   0.28879762 
  298900    1.0011337   0.19228373    20.587504    22.281113   0.34083969 
  299000    1.0040301   0.19049448    20.595904    22.292067   0.32925249 
  299100    1.0027312   0.18795637    20.616896    22.308573   0.14803626 
  299200    1.0189834   0.18706165    20.599934    22.315088   0.35419087 
  299300    1.0059649   0.18747561    20.614797    22.310842  0.024756688 
  299400    1.0063666   0.18482655    20.617545    22.311545   0.56559664 
  299500    1.0099829   0.18473326    20.604407    22.303736    0.2591761 
  299600   0.99821222   0.18636683    20.600297    22.283608   0.68190252 
  299700      1.00719   0.19033482    20.604993    22.305735   0.15068827 
  299800   0.99671246   0.19216257    20.606729    22.293587   0.20064802 
  299900   0.99432516   0.19685081    20.592072    22.280038   0.36117667 
  300000   0.99990404   0.19757001    20.595321    22.292372   0.61646765 
Loop time of 0.636842 on 4 procs (4 MPI x 1 OpenMP) for 2000 steps with 4000 atoms

Pair  time (%) = 0.174014 (27.3245)
Bond  time (%) = 0.061859 (9.7134)
Neigh time (%) = 0.0350369 (5.50166)
Comm  time (%) = 0.156065 (24.5061)
Outpt time (%) = 0.00119394 (0.187478)
Other time (%) = 0.208673 (32.7669)

Nlocal:    1000 ave 1033 max 974 min
Histogram: 1 0 0 1 1 0 0 0 0 1
Nghost:    1126 ave 1132 max 1123 min
Histogram: 1 1 1 0 0 0 0 0 0 1
Neighs:    3101.75 ave 3265 max 2872 min
Histogram: 1 0 0 0 0 1 0 0 1 1

Total # of neighbors = 12407
Ave neighs/atom = 3.10175
Ave special neighs/atom = 5.925
Neighbor list builds = 43
Dangerous builds = 0
shell          head -n 2 Temp.txt | tail -n 1 >> Tempfile.txt
shell          head -n 2 Bond.txt | tail -n 1 >> Bondfile.txt
next           myTempStr
next           myBondStr
if "${myBond} <= 0" then "jump imdinput.txt nobonds"
jump           imdinput.txt loop2here

# specifies the run length in timesteps
run            2000
WARNING: Use special bonds = 0,1,1 with bond style fene (../bond_fene.cpp:188)
Memory usage per processor = 5.58443 Mbytes
Step Temp E_pair E_mol TotEng Press 
  300000   0.99990404   0.19757001    20.595321    22.292372   0.61646765 
  300100   0.99771769   0.20089306    20.603533    22.300628   0.15013957 
  300200    1.0024682   0.19990286    20.611851     22.31508    0.2994652 
  300300    1.0070835   0.19979148    20.615108    22.325147   0.33971532 
  300400    1.0030963   0.19857237    20.606918    22.309759   0.34844916 
  300500    1.0146447   0.19743332    20.595216    22.314235   0.28706656 
  300600    1.0043953   0.19429959    20.617825     22.31834   0.53188622 
  300700     1.005616   0.19492864     20.62215    22.325126  0.045165102 
  300800   0.99400775   0.19272425    20.620333    22.303696   0.49951092 
  300900    1.0015445   0.19221531      20.6069    22.301057   0.45343472 
  301000    1.0153282   0.19360514    20.599867    22.316084   0.50112943 
  301100   0.99814027   0.19605994    20.623881    22.316778   0.44054453 
  301200   0.99906723   0.19561042    20.615462    22.309298   0.31896819 
  301300    1.0002691   0.19018343    20.617047    22.307259   0.12884074 
  301400    1.0128387   0.18705523    20.601639    22.307572   0.46486197 
  301500    1.0153557   0.18342932    20.602192    22.308274   0.27512432 
  301600    1.0108579   0.18350696    20.608673    22.308088   0.55102245 
  301700    1.0116229   0.18649811    20.614054    22.317607   0.40228359 
  301800    1.0160893   0.18717132    20.605696     22.31662   0.34129144 
  301900    1.0086868   0.18390073    20.614212    22.310764   0.34974961 
  302000    1.0175496   0.17964133    20.591543    22.297127   0.29105684 
Loop time of 0.615966 on 4 procs (4 MPI x 1 OpenMP) for 2000 steps with 4000 atoms

Pair  time (%) = 0.168363 (27.3332)
Bond  time (%) = 0.0611429 (9.92635)
Neigh time (%) = 0.0318966 (5.17831)
Comm  time (%) = 0.147347 (23.9213)
Outpt time (%) = 0.00110579 (0.179521)
Other time (%) = 0.20611 (33.4613)

Nlocal:    1000 ave 1019 max 980 min
Histogram: 2 0 0 0 0 0 0 0 0 2
Nghost:    1110.75 ave 1153 max 1089 min
Histogram: 1 2 0 0 0 0 0 0 0 1
Neighs:    3057.5 ave 3170 max 2892 min
Histogram: 1 0 0 0 1 0 0 0 0 2

Total # of neighbors = 12230
Ave neighs/atom = 3.0575
Ave special neighs/atom = 5.925
Neighbor list builds = 40
Dangerous builds = 0
shell          head -n 2 Temp.txt | tail -n 1 >> Tempfile.txt
shell          head -n 2 Bond.txt | tail -n 1 >> Bondfile.txt
next           myTempStr
next           myBondStr
if "${myBond} <= 0" then "jump imdinput.txt nobonds"
jump           imdinput.txt loop2here

# specifies the run length in timesteps
run            2000
WARNING: Use special bonds = 0,1,1 with bond style fene (../bond_fene.cpp:188)
Memory usage per processor = 5.5815 Mbytes
Step Temp E_pair E_mol TotEng Press 
  302000    1.0175496   0.17964133    20.591543    22.297127   0.29105684 
  302100    1.0055132   0.17726371    20.600935    22.286092   0.31782086 
  302200   0.99430961   0.17940555    20.619268    22.289765   0.37550859 
  302300   0.99476855    0.1826958    20.605045     22.27952   0.17035323 
  302400     0.983726   0.18564993    20.594101    22.254971   0.41683098 
  302500   0.97910766   0.18584486    20.602249    22.256388  0.080158793 
  302600   0.97277743   0.18441985    20.603673    22.246894   0.54423892 
  302700     0.997254   0.18501233     20.57041    22.250929   0.46414359 
  302800   0.98279541   0.18387138    20.605314     22.26301  0.062531328 
  302900    0.9909553   0.18306762     20.60446    22.273589   0.46346593 
  303000   0.99147496   0.18587324    20.587425    22.260139  0.034763013 
  303100   0.98482952   0.18951486    20.592163    22.258553    0.4712611 
  303200   0.99161841   0.19036849    20.583883    22.261307   0.35653654 
  303300   0.99390492   0.18998531    20.592898    22.273368    0.2146674 
  303400   0.99537722   0.18515249    20.587939    22.265784   0.34141669 
  303500   0.98917085   0.17928949     20.59797    22.260645   0.20339884 
  303600   0.98861686   0.17787213    20.603635    22.264061   0.31404199 
  303700   0.98828239   0.18020072     20.59484    22.257094   0.45177974 
  303800   0.98199246   0.18623481    20.600996    22.259852   0.23662331 
  303900     0.975283   0.18677208    20.592988    22.242319   0.35100827 
  304000   0.98205735   0.18723583    20.588049    22.248002   0.44867258 
Loop time of 0.62521 on 4 procs (4 MPI x 1 OpenMP) for 2000 steps with 4000 atoms

Pair  time (%) = 0.16708 (26.7238)
Bond  time (%) = 0.0594543 (9.50949)
Neigh time (%) = 0.0338473 (5.41375)
Comm  time (%) = 0.15671 (25.0653)
Outpt time (%) = 0.00111419 (0.178211)
Other time (%) = 0.207004 (33.1095)

Nlocal:    1000 ave 1042 max 943 min
Histogram: 1 0 0 0 0 1 0 1 0 1
Nghost:    1085.75 ave 1123 max 1060 min
Histogram: 2 0 0 0 0 0 1 0 0 1
Neighs:    3035.5 ave 3297 max 2672 min
Histogram: 1 0 0 0 1 0 0 0 1 1

Total # of neighbors = 12142
Ave neighs/atom = 3.0355
Ave special neighs/atom = 5.925
Neighbor list builds = 41
Dangerous builds = 0
shell          head -n 2 Temp.txt | tail -n 1 >> Tempfile.txt
shell          head -n 2 Bond.txt | tail -n 1 >> Bondfile.txt
next           myTempStr
next           myBondStr
if "${myBond} <= 0" then "jump imdinput.txt nobonds"
jump           imdinput.txt loop2here

# specifies the run length in timesteps
run            2000
WARNING: Use special bonds = 0,1,1 with bond style fene (../bond_fene.cpp:188)
Memory usage per processor = 5.58614 Mbytes
Step Temp E_pair E_mol TotEng Press 
  304000   0.98205735   0.18723583    20.588049    22.248002   0.44867258 
  304100   0.99062816   0.18346807    20.576617    22.245656   0.20091044 
  304200   0.99413695   0.18287454    20.567737    22.241444   0.40077561 
  304300   0.97918117   0.17942302    20.582904    22.230732   0.36579655 
  304400    0.9960304   0.17530819    20.575599    22.244579   0.54900145 
  304500   0.98941927   0.17916617    20.577413    22.240337  -0.03592746 
  304600    0.9924236   0.18006199    20.581923    22.250248    0.2414056 
  304700    1.0014346   0.17967889    20.587531    22.268986   0.28799028 
  304800   0.99866652    0.1855142    20.583735    22.266875    0.4378218 
  304900   0.99219602   0.19286745    20.593872    22.274662   0.38296925 
  305000    1.0031112   0.20022156    20.582101    22.286613   0.48627758 
  305100    0.9852034   0.20468754    20.600616    22.282739   0.24655453 
  305200   0.98274074    0.2049215    20.598187    22.276851   0.22691757 
  305300    1.0029499   0.20278464    20.580475    22.287309   0.32393814 
  305400   0.99773052   0.20327623    20.594965    22.294463   0.39275582 
  305500    1.0039749   0.20541602     20.59636    22.307362  0.036067601 
  305600    1.0005746   0.20238841    20.592718    22.295593   0.45439788 
  305700    1.0089303   0.20299537    20.581911    22.297923      0.28652 
  305800   0.99528755    0.2006332    20.601778    22.294969   0.52339891 
  305900    1.0080075   0.20048104    20.577702    22.289816  0.065108567 
  306000   0.99777977   0.19780583    20.593499      22.2876   0.43974539 
Loop time of 0.623206 on 4 procs (4 MPI x 1 OpenMP) for 2000 steps with 4000 atoms

Pair  time (%) = 0.167427 (26.8654)
Bond  time (%) = 0.0588613 (9.44492)
Neigh time (%) = 0.033621 (5.39483)
Comm  time (%) = 0.154745 (24.8304)
Outpt time (%) = 0.00118381 (0.189954)
Other time (%) = 0.207369 (33.2745)

Nlocal:    1000 ave 1010 max 992 min
Histogram: 2 0 0 0 0 0 0 1 0 1
Nghost:    1082 ave 1112 max 1056 min
Histogram: 1 1 0 0 0 0 0 1 0 1
Neighs:    3092.25 ave 3112 max 3049 min
Histogram: 1 0 0 0 0 0 0 0 1 2

Total # of neighbors = 12369
Ave neighs/atom = 3.09225
Ave special neighs/atom = 5.925
Neighbor list builds = 41
Dangerous builds = 0
shell          head -n 2 Temp.txt | tail -n 1 >> Tempfile.txt
shell          head -n 2 Bond.txt | tail -n 1 >> Bondfile.txt
next           myTempStr
next           myBondStr
if "${myBond} <= 0" then "jump imdinput.txt nobonds"
jump           imdinput.txt loop2here

# specifies the run length in timesteps
run            2000
WARNING: Use special bonds = 0,1,1 with bond style fene (../bond_fene.cpp:188)
Memory usage per processor = 5.57955 Mbytes
Step Temp E_pair E_mol TotEng Press 
  306000   0.99777977   0.19780583    20.593499      22.2876   0.43974539 
  306100    1.0033679   0.19656832    20.567859    22.269103   0.35707936 
  306200   0.99271707   0.19253893    20.593982    22.275225   0.36802614 
  306300   0.99662224   0.19236197    20.589092    22.276013   0.36428686 
  306400   0.98318727   0.19762599    20.594828    22.266867    0.1465284 
  306500   0.99878495   0.20052215    20.579593    22.277918   0.36533589 
  306600   0.98425513   0.20423182    20.587626    22.267872   0.12981521 
  306700   0.98818493   0.20167803    20.592054    22.275639   0.52282025 
  306800    1.0001274   0.20056223    20.579404    22.279782   0.52073868 
  306900   0.99705872   0.19951515    20.601149    22.295878   0.29098577 
  307000    1.0115017   0.19999502    20.593676    22.310544   0.32818524 
  307100    1.0065557   0.19966413     20.58367     22.29279   0.26496433 
  307200    1.0107147   0.19585171    20.576965     22.28851   0.33366001 
  307300   0.99318305   0.19398131      20.5902    22.273584    0.2944611 
  307400    1.0008207   0.19325186     20.59342    22.287527    0.4113499 
  307500    1.0016097   0.19236822    20.595191    22.289598  0.047761384 
  307600    1.0088142   0.19284212    20.589696    22.295381   0.43275935 
  307700    0.9994189   0.19689403    20.594126    22.289773   0.33995345 
  307800   0.99521738    0.1972533    20.589471    22.279177   0.56493226 
  307900    1.0040279   0.19417608    20.584136    22.283977   0.34975356 
  308000    1.0061549   0.18919488    20.583535    22.281584   0.26985824 
Loop time of 0.612392 on 4 procs (4 MPI x 1 OpenMP) for 2000 steps with 4000 atoms

Pair  time (%) = 0.168055 (27.4423)
Bond  time (%) = 0.060885 (9.94215)
Neigh time (%) = 0.0334635 (5.4644)
Comm  time (%) = 0.144968 (23.6725)
Outpt time (%) = 0.0011549 (0.188588)
Other time (%) = 0.203866 (33.2901)

Nlocal:    1000 ave 1018 max 977 min
Histogram: 1 0 0 0 0 1 1 0 0 1
Nghost:    1076 ave 1092 max 1054 min
Histogram: 1 0 0 0 0 0 2 0 0 1
Neighs:    3077.5 ave 3170 max 3010 min
Histogram: 1 0 0 2 0 0 0 0 0 1

Total # of neighbors = 12310
Ave neighs/atom = 3.0775
Ave special neighs/atom = 5.925
Neighbor list builds = 42
Dangerous builds = 0
shell          head -n 2 Temp.txt | tail -n 1 >> Tempfile.txt
shell          head -n 2 Bond.txt | tail -n 1 >> Bondfile.txt
next           myTempStr
next           myBondStr
if "${myBond} <= 0" then "jump imdinput.txt nobonds"
jump           imdinput.txt loop2here

# specifies the run length in timesteps
run            2000
WARNING: Use special bonds = 0,1,1 with bond style fene (../bond_fene.cpp:188)
Memory usage per processor = 5.5815 Mbytes
Step Temp E_pair E_mol TotEng Press 
  308000    1.0061549   0.18919488    20.583535    22.281584   0.26985824 
  308100    1.0067323   0.18784119    20.594852    22.292414   0.37750958 
  308200   0.99109797   0.18836329    20.585553    22.260192   0.23111268 
  308300   0.98326498   0.18542924    20.603924    22.263882   0.53790206 
  308400   0.99521977   0.18492916    20.590971    22.268357   0.24358342 
  308500   0.96828524   0.18023967    20.599329    22.231633   0.41053794 
  308600   0.98353207   0.18016405    20.576824    22.231918    0.0787699 
  308700   0.98067595   0.18369128    20.581055    22.235393   0.33518659 
  308800   0.97557992   0.18820018    20.586049    22.237253   0.39083165 
  308900   0.96987134   0.19049433    20.585322     22.23026   0.40276221 
  309000   0.98265976   0.18975143    20.582611    22.245984   0.25639046 
  309100   0.99113739   0.18587251    20.577717    22.249924   0.37622696 
  309200   0.99445245   0.18665967    20.572044     22.25001    0.1079328 
  309300    1.0001825   0.18328539    20.583463    22.266647   0.28302428 
  309400    1.0204609   0.18197651    20.570692    22.282977   0.39760963 
  309500    1.0082465   0.18569493    20.591184     22.28887   0.31510863 
  309600    1.0222123   0.19061734    20.580139    22.303692   0.35006385 
  309700     1.009525   0.19424884    20.601702     22.30986   0.12081478 
  309800    1.0072504   0.19523031    20.594653    22.300381   0.21408269 
  309900    1.0224128    0.1913106    20.592907    22.317454   0.25736731 
  310000    1.0255567   0.18456211    20.597556    22.320068   0.44933125 
Loop time of 0.61981 on 4 procs (4 MPI x 1 OpenMP) for 2000 steps with 4000 atoms

Pair  time (%) = 0.167274 (26.9879)
Bond  time (%) = 0.0603625 (9.73887)
Neigh time (%) = 0.0330133 (5.32636)
Comm  time (%) = 0.153284 (24.7308)
Outpt time (%) = 0.00115049 (0.18562)
Other time (%) = 0.204726 (33.0304)

Nlocal:    1000 ave 1009 max 979 min
Histogram: 1 0 0 0 0 0 0 0 1 2
Nghost:    1050.5 ave 1083 max 1019 min
Histogram: 1 1 0 0 0 0 0 1 0 1
Neighs:    3082 ave 3287 max 2822 min
Histogram: 1 0 0 0 0 0 2 0 0 1

Total # of neighbors = 12328
Ave neighs/atom = 3.082
Ave special neighs/atom = 5.925
Neighbor list builds = 41
Dangerous builds = 0
shell          head -n 2 Temp.txt | tail -n 1 >> Tempfile.txt
shell          head -n 2 Bond.txt | tail -n 1 >> Bondfile.txt
next           myTempStr
next           myBondStr
if "${myBond} <= 0" then "jump imdinput.txt nobonds"
jump           imdinput.txt loop2here

# specifies the run length in timesteps
run            2000
WARNING: Use special bonds = 0,1,1 with bond style fene (../bond_fene.cpp:188)
Memory usage per processor = 5.57931 Mbytes
Step Temp E_pair E_mol TotEng Press 
  310000    1.0255567   0.18456211    20.597556    22.320068   0.44933125 
  310100    1.0084163   0.18568069    20.602585    22.300512  0.066652354 
  310200   0.99570126    0.1850038    20.608872    22.287055   0.31033283 
  310300    1.0018713   0.18571213     20.60634    22.294483   0.43649332 
  310400    1.0046749   0.18801037    20.587995    22.282641   0.26640196 
  310500    1.0025184   0.18623856    20.602407    22.292048   0.49982493 
  310600   0.99670406   0.18633134    20.605264    22.286278  0.024826692 
  310700   0.99698572    0.1880354    20.607764    22.290904   0.54870473 
  310800   0.98440054   0.19128875    20.613619    22.281139   0.45595204 
  310900   0.99945556   0.19351555    20.609745    22.302069    0.2358002 
  311000    1.0015912   0.19548698    20.601848    22.299346    0.1266646 
  311100    1.0116628   0.19528708    20.583857    22.296258   0.41277973 
  311200   0.99275422   0.19086786    20.617723    22.297349   0.38667618 
  311300    1.0038331   0.18863992    20.593739    22.287752   0.39206576 
  311400   0.99775672   0.19010667     20.60684    22.293207  0.015161958 
  311500    1.0102632   0.19049384    20.579883    22.285393   0.62567411 
  311600    1.0166775   0.19252802    20.580186    22.297349   0.35590094 
  311700    1.0041737   0.19278052    20.590446    22.289111   0.35209548 
  311800    1.0061063   0.19572667    20.590393    22.294902   0.31368314 
  311900    1.0091653   0.19761827    20.592761    22.303749   0.28462152 
  312000    1.0111825   0.19918804    20.596671    22.312253   0.33348986 
Loop time of 0.628661 on 4 procs (4 MPI x 1 OpenMP) for 2000 steps with 4000 atoms

Pair  time (%) = 0.168377 (26.7834)
Bond  time (%) = 0.0601885 (9.57408)
Neigh time (%) = 0.033477 (5.32513)
Comm  time (%) = 0.157611 (25.0709)
Outpt time (%) = 0.00112748 (0.179346)
Other time (%) = 0.207881 (33.0672)

Nlocal:    1000 ave 1040 max 984 min
Histogram: 3 0 0 0 0 0 0 0 0 1
Nghost:    1050 ave 1068 max 1040 min
Histogram: 1 1 0 1 0 0 0 0 0 1
Neighs:    3049.25 ave 3382 max 2877 min
Histogram: 1 1 1 0 0 0 0 0 0 1

Total # of neighbors = 12197
Ave neighs/atom = 3.04925
Ave special neighs/atom = 5.925
Neighbor list builds = 41
Dangerous builds = 0
shell          head -n 2 Temp.txt | tail -n 1 >> Tempfile.txt
shell          head -n 2 Bond.txt | tail -n 1 >> Bondfile.txt
next           myTempStr
next           myBondStr
if "${myBond} <= 0" then "jump imdinput.txt nobonds"
jump           imdinput.txt loop2here

# specifies the run length in timesteps
run            2000
WARNING: Use special bonds = 0,1,1 with bond style fene (../bond_fene.cpp:188)
Memory usage per processor = 5.58736 Mbytes
Step Temp E_pair E_mol TotEng Press 
  312000    1.0111825   0.19918804    20.596671    22.312253   0.33348986 
  312100    1.0076024   0.20312474    20.600856    22.315006   0.30629339 
  312200    1.0078004   0.20380492    20.604505    22.319633   0.30466208 
  312300    1.0250175   0.20174888    20.570115    22.309006   0.26809847 
  312400    1.0126823   0.19802453    20.598244    22.314912   0.20997824 
  312500     1.014927    0.1958948    20.595165     22.31307    0.5911685 
  312600    1.0086067   0.19613435    20.609623    22.318289   0.39439946 
  312700    1.0093164   0.19348941    20.598196    22.305281   0.34262054 
  312800   0.99994824   0.19231286    20.603832    22.295693   0.11987328 
  312900    1.0072768   0.18982097    20.598468    22.298827   0.54187691 
  313000    1.0096499   0.18935005    20.606632    22.310079   0.18945359 
  313100    1.0209908    0.1907614    20.592405    22.314269   0.29762669 
  313200    1.0116175   0.19228293    20.595976    22.305306   0.39960425 
  313300   0.99725795   0.19468577    20.603826    22.294024   0.52938805 
  313400    1.0058618   0.19877666    20.599512    22.306704    0.3187505 
  313500    1.0151077   0.20015121    20.591495    22.313927   0.34800926 
  313600     1.001072   0.20409549    20.601935    22.307263   0.25430934 
  313700    1.0000869   0.20054987    20.594915     22.29522   0.55930582 
  313800   0.99582871   0.19949333     20.60528    22.298143  0.026346246 
  313900    1.0078721   0.19902695    20.594193     22.30465   0.31684617 
  314000    1.0217693   0.19785155    20.597078    22.327201   0.22292208 
Loop time of 0.629403 on 4 procs (4 MPI x 1 OpenMP) for 2000 steps with 4000 atoms

Pair  time (%) = 0.169152 (26.8751)
Bond  time (%) = 0.0587478 (9.3339)
Neigh time (%) = 0.0330815 (5.25602)
Comm  time (%) = 0.159647 (25.3649)
Outpt time (%) = 0.00115997 (0.184296)
Other time (%) = 0.207613 (32.9858)

Nlocal:    1000 ave 1022 max 972 min
Histogram: 1 0 0 1 0 0 0 0 0 2
Nghost:    1055 ave 1097 max 1016 min
Histogram: 1 0 0 1 0 1 0 0 0 1
Neighs:    3097.75 ave 3338 max 2789 min
Histogram: 1 0 0 1 0 0 0 0 0 2

Total # of neighbors = 12391
Ave neighs/atom = 3.09775
Ave special neighs/atom = 5.925
Neighbor list builds = 40
Dangerous builds = 0
shell          head -n 2 Temp.txt | tail -n 1 >> Tempfile.txt
shell          head -n 2 Bond.txt | tail -n 1 >> Bondfile.txt
next           myTempStr
next           myBondStr
if "${myBond} <= 0" then "jump imdinput.txt nobonds"
jump           imdinput.txt loop2here

# specifies the run length in timesteps
run            2000
WARNING: Use special bonds = 0,1,1 with bond style fene (../bond_fene.cpp:188)
Memory usage per processor = 5.5837 Mbytes
Step Temp E_pair E_mol TotEng Press 
  314000    1.0217693   0.19785155    20.597078    22.327201   0.22292208 
  314100    1.0100881   0.19721985    20.604641    22.316614   0.54528852 
  314200    1.0052751   0.19793238    20.605092     22.31056   0.28160789 
  314300    1.0019183   0.19596491    20.593212    22.291679   0.40145466 
  314400    1.0120521   0.19469408      20.6042    22.316592    0.2055273 
  314500    1.0047727    0.1946397    20.613384    22.314806   0.16677885 
  314600    1.0078325    0.1916429    20.586904    22.289918   0.35240597 
  314700    1.0119466   0.19012243    20.594228    22.301891   0.26859999 
  314800    1.0096498   0.18742058    20.599334     22.30085   0.40545985 
  314900    1.0090632   0.18942508    20.598527    22.301169   0.43806167 
  315000   0.98978813   0.19191265    20.605459    22.281683   0.25043739 
  315100    1.0133241   0.19204863      20.5826    22.294254   0.60875153 
  315200   0.99183529   0.19692238    20.610868    22.295172  -0.08524995 
  315300    1.0022284    0.1939408    20.605709    22.302616   0.28541532 
  315400    1.0003017   0.19223663    20.596979    22.289293   0.24616661 
  315500    1.0065268   0.19136366    20.598331    22.299108   0.21162328 
  315600     1.005216   0.19288369    20.596759     22.29709   0.43191187 
  315700    1.0032781    0.1940209    20.591293    22.289855   0.52320024 
  315800   0.99266763   0.19261518    20.593419    22.274664   0.22842829 
  315900   0.99628927   0.19094516     20.57936    22.264365   0.41562889 
  316000   0.99314731   0.19483541    20.582156     22.26634   0.21591512 
Loop time of 0.632241 on 4 procs (4 MPI x 1 OpenMP) for 2000 steps with 4000 atoms

Pair  time (%) = 0.170354 (26.9444)
Bond  time (%) = 0.0593424 (9.38605)
Neigh time (%) = 0.0338735 (5.35769)
Comm  time (%) = 0.160064 (25.317)
Outpt time (%) = 0.00113118 (0.178916)
Other time (%) = 0.207476 (32.8159)

Nlocal:    1000 ave 1021 max 988 min
Histogram: 2 0 0 1 0 0 0 0 0 1
Nghost:    1115.75 ave 1133 max 1102 min
Histogram: 1 0 1 0 0 1 0 0 0 1
Neighs:    3120 ave 3250 max 2976 min
Histogram: 1 0 1 0 0 0 0 0 1 1

Total # of neighbors = 12480
Ave neighs/atom = 3.12
Ave special neighs/atom = 5.925
Neighbor list builds = 41
Dangerous builds = 0
shell          head -n 2 Temp.txt | tail -n 1 >> Tempfile.txt
shell          head -n 2 Bond.txt | tail -n 1 >> Bondfile.txt
next           myTempStr
next           myBondStr
if "${myBond} <= 0" then "jump imdinput.txt nobonds"
jump           imdinput.txt loop2here

# specifies the run length in timesteps
run            2000
WARNING: Use special bonds = 0,1,1 with bond style fene (../bond_fene.cpp:188)
Memory usage per processor = 5.58175 Mbytes
Step Temp E_pair E_mol TotEng Press 
  316000   0.99314731   0.19483541    20.582156     22.26634   0.21591512 
  316100   0.98215289   0.19519828    20.583868    22.251927   0.35044772 
  316200   0.98522819   0.19343679    20.589493    22.260402   0.38111438 
  316300   0.99251018   0.19489335     20.58188    22.265167   0.44847133 
  316400   0.98411303   0.19700712    20.585834    22.258641   0.20446617 
  316500   0.97534298   0.19928514    20.613089    22.275023   0.47048474 
  316600   0.98571966   0.19824813    20.599184    22.275642   0.23922003 
  316700   0.99282188   0.19440581    20.597636    22.280902    0.5609321 
  316800   0.98741048   0.19276105    20.607798    22.281304   0.21651041 
  316900     1.002447   0.19310249    20.591012    22.287409   0.21765065 
  317000   0.99509786   0.19489329    20.585539    22.272706   0.49936205 
  317100   0.98668906   0.19705973     20.57166    22.248383   0.31261926 
  317200   0.97929523   0.19730047    20.585909    22.251785   0.17010519 
  317300   0.99166204   0.19446431    20.593063    22.274648   0.38259135 
  317400   0.99871196   0.19137399    20.584287    22.273354   0.44585747 
  317500    1.0104673   0.19108325    20.579261    22.285666   0.37289255 
  317600   0.98749955   0.19031589    20.616332    22.287526   0.37393318 
  317700    1.0048542    0.1910464    20.595371    22.293322   0.47707542 
  317800    1.0134511   0.18868152    20.580615    22.289093   0.46164283 
  317900    1.0097689   0.18987167    20.596776    22.300923   0.21008567 
  318000    0.9910499   0.19675225     20.61018    22.293135   0.42236081 
Loop time of 0.62355 on 4 procs (4 MPI x 1 OpenMP) for 2000 steps with 4000 atoms

Pair  time (%) = 0.169355 (27.1598)
Bond  time (%) = 0.0609971 (9.78222)
Neigh time (%) = 0.0329362 (5.28205)
Comm  time (%) = 0.153976 (24.6934)
Outpt time (%) = 0.00113356 (0.181791)
Other time (%) = 0.205153 (32.9008)

Nlocal:    1000 ave 1014 max 993 min
Histogram: 1 2 0 0 0 0 0 0 0 1
Nghost:    1072 ave 1102 max 1053 min
Histogram: 1 1 0 1 0 0 0 0 0 1
Neighs:    3049.5 ave 3157 max 2904 min
Histogram: 1 0 0 0 1 0 0 0 1 1

Total # of neighbors = 12198
Ave neighs/atom = 3.0495
Ave special neighs/atom = 5.925
Neighbor list builds = 41
Dangerous builds = 0
shell          head -n 2 Temp.txt | tail -n 1 >> Tempfile.txt
shell          head -n 2 Bond.txt | tail -n 1 >> Bondfile.txt
next           myTempStr
next           myBondStr
if "${myBond} <= 0" then "jump imdinput.txt nobonds"
jump           imdinput.txt loop2here

# specifies the run length in timesteps
run            2000
WARNING: Use special bonds = 0,1,1 with bond style fene (../bond_fene.cpp:188)
Memory usage per processor = 5.58102 Mbytes
Step Temp E_pair E_mol TotEng Press 
  318000    0.9910499   0.19675225     20.61018    22.293135   0.42236081 
  318100   0.99910998   0.19548924     20.59984    22.293619   0.37124849 
  318200    1.0098455   0.19016131    20.603578    22.308129   0.43816981 
  318300    1.0001371   0.18641366    20.604935    22.291179   0.21978038 
  318400   0.99830156   0.18728702    20.597941    22.282306   0.58633353 
  318500    1.0023977   0.18836855     20.58908    22.280669   0.42129591 
  318600   0.99771528    0.1857034     20.60371    22.285612   0.22924419 
  318700    1.0046156   0.18302493     20.60221    22.291781   0.37766678 
  318800   0.99731199   0.18515065    20.593037    22.273782   0.38797155 
  318900   0.99316668   0.19049809    20.613904     22.29378   0.31755391 
  319000    1.0054043   0.19119909    20.586142     22.28507   0.22981795 
  319100   0.99976228   0.19052679    20.603185    22.292981   0.32649824 
  319200   0.99830239   0.18985466    20.595708    22.282642   0.13152453 
  319300    1.0070222   0.18780338    20.584603    22.282562   0.40558938 
  319400   0.99747782   0.19125131     20.59643    22.283524   0.13120579 
  319500    1.0133567   0.19046374    20.574991    22.285109   0.45126854 
  319600   0.99315941   0.18909136    20.603015    22.281473   0.24872781 
  319700   0.99686906   0.18827018    20.598975    22.282175   0.35405988 
  319800   0.98913482   0.18937071    20.596259    22.268961   0.25705695 
  319900    1.0013343   0.19167899     20.59415    22.287455   0.57454316 
  320000    1.0022186   0.19115079    20.608486    22.302589   0.36205616 
Loop time of 0.624149 on 4 procs (4 MPI x 1 OpenMP) for 2000 steps with 4000 atoms

Pair  time (%) = 0.168654 (27.0214)
Bond  time (%) = 0.0601969 (9.64464)
Neigh time (%) = 0.0358526 (5.74423)
Comm  time (%) = 0.155276 (24.8779)
Outpt time (%) = 0.00113094 (0.181197)
Other time (%) = 0.203039 (32.5306)

Nlocal:    1000 ave 1033 max 983 min
Histogram: 2 0 1 0 0 0 0 0 0 1
Nghost:    1061.5 ave 1072 max 1052 min
Histogram: 1 0 1 0 0 0 1 0 0 1
Neighs:    3057.75 ave 3306 max 2926 min
Histogram: 1 1 1 0 0 0 0 0 0 1

Total # of neighbors = 12231
Ave neighs/atom = 3.05775
Ave special neighs/atom = 5.925
Neighbor list builds = 44
Dangerous builds = 0
shell          head -n 2 Temp.txt | tail -n 1 >> Tempfile.txt
shell          head -n 2 Bond.txt | tail -n 1 >> Bondfile.txt
next           myTempStr
next           myBondStr
if "${myBond} <= 0" then "jump imdinput.txt nobonds"
jump           imdinput.txt loop2here

# specifies the run length in timesteps
run            2000
WARNING: Use special bonds = 0,1,1 with bond style fene (../bond_fene.cpp:188)
Memory usage per processor = 5.58517 Mbytes
Step Temp E_pair E_mol TotEng Press 
  320000    1.0022186   0.19115079    20.608486    22.302589   0.36205616 
  320100    1.0063535   0.18945247    20.591577    22.290182   0.32348329 
  320200    1.0085205   0.18877043      20.5906    22.291773    0.2067658 
  320300    1.0166184   0.18930013    20.573767    22.287613   0.28529048 
  320400   0.98529642   0.19180125    20.601116    22.270493   0.33803344 
  320500   0.98515828   0.19417585    20.579556      22.2511   0.17057133 
  320600   0.98913128    0.1966627    20.570098    22.250087   0.52309784 
  320700   0.97769202   0.19412278     20.59089    22.251184   0.34724178 
  320800   0.99272991   0.19232025    20.568576    22.249618    0.4802527 
  320900   0.98080344   0.18837917    20.581093     22.24031   0.22011625 
  321000   0.96286241   0.18705085      20.5898    22.220783   0.10432193 
  321100   0.98607407   0.18718978     20.56641    22.232341   0.29648425 
  321200   0.97811831   0.18872656    20.580693     22.23623   0.38368019 
  321300   0.97743872   0.18605924    20.594544    22.246395   0.15800228 
  321400    1.0004483   0.18499225    20.581297    22.266586   0.64695552 
  321500   0.99225315    0.1872134    20.584151    22.259372   0.25253885 
  321600   0.98191675   0.19344936    20.597002    22.262958   0.49445433 
  321700   0.97304506   0.19790831    20.593074    22.250185   0.28334098 
  321800   0.96996992   0.19757608    20.585597    22.237764    0.5299812 
  321900   0.96350905   0.19650415    20.597913    22.239319   0.43058775 
  322000   0.99027474   0.19559859    20.580952    22.261592    0.2569128 
Loop time of 0.625767 on 4 procs (4 MPI x 1 OpenMP) for 2000 steps with 4000 atoms

Pair  time (%) = 0.170259 (27.2081)
Bond  time (%) = 0.0602093 (9.62168)
Neigh time (%) = 0.0327632 (5.23569)
Comm  time (%) = 0.156747 (25.0488)
Outpt time (%) = 0.00112182 (0.179271)
Other time (%) = 0.204666 (32.7065)

Nlocal:    1000 ave 1035 max 962 min
Histogram: 1 0 0 1 0 0 0 1 0 1
Nghost:    1022.75 ave 1047 max 998 min
Histogram: 1 1 0 0 0 0 0 0 1 1
Neighs:    3173.25 ave 3510 max 2907 min
Histogram: 1 0 1 0 1 0 0 0 0 1

Total # of neighbors = 12693
Ave neighs/atom = 3.17325
Ave special neighs/atom = 5.925
Neighbor list builds = 40
Dangerous builds = 0
shell          head -n 2 Temp.txt | tail -n 1 >> Tempfile.txt
shell          head -n 2 Bond.txt | tail -n 1 >> Bondfile.txt
next           myTempStr
next           myBondStr
if "${myBond} <= 0" then "jump imdinput.txt nobonds"
jump           imdinput.txt loop2here

# specifies the run length in timesteps
run            2000
WARNING: Use special bonds = 0,1,1 with bond style fene (../bond_fene.cpp:188)
Memory usage per processor = 5.58517 Mbytes
Step Temp E_pair E_mol TotEng Press 
  322000   0.99027474   0.19559859    20.580952    22.261592    0.2569128 
  322100   0.98417111   0.19475038    20.583487    22.254125   0.24973638 
  322200   0.98050351   0.19639671    20.595368    22.262153   0.41276006 
  322300    0.9955251   0.19828442     20.58101    22.272209   0.31847457 
  322400   0.99582005   0.19688991    20.583204    22.273451   0.55545138 
  322500   0.98734249   0.19714347    20.601108    22.278895   0.30945968 
  322600   0.98617895   0.19436008    20.605428    22.278686   0.46703677 
  322700   0.99195488   0.19293533    20.609228    22.289724   0.59584127 
  322800    1.0050903   0.18977725    20.601624     22.29866   0.22911606 
  322900   0.99372099   0.18986916    20.597168    22.277246   0.40078462 
  323000   0.98535175   0.18992716    20.609166    22.276751   0.28803681 
  323100   0.99614834   0.18957682    20.610483    22.293909   0.31398862 
  323200    1.0078625   0.19101977    20.607642    22.310078    0.1218539 
  323300    1.0285486   0.19108878    20.584401    22.317927   0.51586864 
  323400    1.0175641   0.19201941     20.60996    22.327944   0.25743619 
  323500    1.0236431   0.19225942     20.58641    22.313751   0.70269911 
  323600    1.0217279   0.19535624     20.57859    22.306155   0.41036211 
  323700    1.0040844   0.19616503    20.604902    22.306817    0.2812506 
  323800     1.015006   0.19855683     20.58748    22.308165   0.21981318 
  323900   0.99281092   0.19570219    20.602789    22.287335   0.26128545 
  324000    1.0098003   0.19293229     20.58703    22.294284   0.40550399 
Loop time of 0.608126 on 4 procs (4 MPI x 1 OpenMP) for 2000 steps with 4000 atoms

Pair  time (%) = 0.169874 (27.9341)
Bond  time (%) = 0.0614912 (10.1116)
Neigh time (%) = 0.0339971 (5.59047)
Comm  time (%) = 0.138306 (22.743)
Outpt time (%) = 0.00112188 (0.184481)
Other time (%) = 0.203335 (33.4364)

Nlocal:    1000 ave 1069 max 933 min
Histogram: 1 0 0 0 1 1 0 0 0 1
Nghost:    1022.5 ave 1063 max 986 min
Histogram: 1 0 0 1 0 1 0 0 0 1
Neighs:    3051.25 ave 3455 max 2725 min
Histogram: 1 0 0 1 1 0 0 0 0 1

Total # of neighbors = 12205
Ave neighs/atom = 3.05125
Ave special neighs/atom = 5.925
Neighbor list builds = 43
Dangerous builds = 0
shell          head -n 2 Temp.txt | tail -n 1 >> Tempfile.txt
shell          head -n 2 Bond.txt | tail -n 1 >> Bondfile.txt
next           myTempStr
next           myBondStr
if "${myBond} <= 0" then "jump imdinput.txt nobonds"
jump           imdinput.txt loop2here

# specifies the run length in timesteps
run            2000
WARNING: Use special bonds = 0,1,1 with bond style fene (../bond_fene.cpp:188)
Memory usage per processor = 5.5942 Mbytes
Step Temp E_pair E_mol TotEng Press 
  324000    1.0098003   0.19293229     20.58703    22.294284   0.40550399 
  324100    1.0012642   0.18901212    20.567812    22.258345   0.41246278 
  324200   0.98764573   0.18926612    20.612528    22.282893   0.10224031 
  324300    1.0104978   0.19016946    20.594095    22.299632   0.38803313 
  324400    1.0027871   0.19032532    20.601457    22.295587    0.4394856 
  324500    1.0223562   0.18408255    20.591008    22.308242   0.31717112 
  324600    1.0104921    0.1818064    20.600632    22.297798   0.34590777 
  324700    1.0286436    0.1827564    20.612358    22.337695   0.36402661 
  324800    1.0182722   0.18251138    20.625957    22.335495    0.3559964 
  324900    1.0099972   0.18341425    20.631428     22.32946   0.30410175 
  325000    1.0117788    0.1860356    20.608165    22.311489    0.2820228 
  325100    1.0115143   0.18571201    20.597433    22.300038   0.59142387 
  325200   0.99751861   0.18822411    20.591253    22.275381   0.27538809 
  325300    1.0066171   0.18596198    20.594862    22.290372   0.25858743 
  325400     1.002738    0.1884735    20.595928    22.288132   0.50235931 
  325500   0.99384317   0.19235611    20.592923    22.275672   0.32171207 
  325600   0.99897118   0.19113011    20.591894    22.281106   0.11947608 
  325700    1.0082579   0.18972218    20.586573    22.288304   0.26970201 
  325800   0.99100892    0.1844462    20.601408    22.271996     0.226036 
  325900   0.99649959   0.18231121    20.589235    22.265922   0.38108785 
  326000    1.0010984   0.18696685    20.601706    22.289946    0.1123714 
Loop time of 0.602507 on 4 procs (4 MPI x 1 OpenMP) for 2000 steps with 4000 atoms

Pair  time (%) = 0.168446 (27.9575)
Bond  time (%) = 0.0602108 (9.99338)
Neigh time (%) = 0.0316387 (5.25118)
Comm  time (%) = 0.138043 (22.9115)
Outpt time (%) = 0.00118631 (0.196896)
Other time (%) = 0.202982 (33.6896)

Nlocal:    1000 ave 1052 max 928 min
Histogram: 1 0 0 0 0 0 2 0 0 1
Nghost:    1050.75 ave 1084 max 1022 min
Histogram: 1 0 1 0 0 0 1 0 0 1
Neighs:    3114.5 ave 3367 max 2740 min
Histogram: 1 0 0 0 0 0 1 1 0 1

Total # of neighbors = 12458
Ave neighs/atom = 3.1145
Ave special neighs/atom = 5.925
Neighbor list builds = 40
Dangerous builds = 0
shell          head -n 2 Temp.txt | tail -n 1 >> Tempfile.txt
shell          head -n 2 Bond.txt | tail -n 1 >> Bondfile.txt
next           myTempStr
next           myBondStr
if "${myBond} <= 0" then "jump imdinput.txt nobonds"
jump           imdinput.txt loop2here

# specifies the run length in timesteps
run            2000
WARNING: Use special bonds = 0,1,1 with bond style fene (../bond_fene.cpp:188)
Memory usage per processor = 5.59151 Mbytes
Step Temp E_pair E_mol TotEng Press 
  326000    1.0010984   0.18696685    20.601706    22.289946    0.1123714 
  326100   0.98774439   0.19165346    20.587746    22.260646   0.41362777 
  326200    0.9843889   0.19348829    20.587009    22.256711   0.45229327 
  326300   0.97556391   0.18993784    20.592981    22.245899   0.34599458 
  326400   0.99203815   0.18591508    20.579122    22.252722   0.38805699 
  326500   0.99679574   0.18623044    20.586879    22.267929    0.2495054 
  326600   0.99984277   0.18810113    20.578213    22.265704   0.45930683 
  326700   0.99429608   0.18828874    20.579024    22.258384   0.22010435 
  326800   0.99101486   0.18938226    20.584363    22.259896    0.3056532 
  326900   0.98870366   0.18807201    20.591478    22.262235   0.31337158 
  327000    1.0074229   0.18484205    20.580249    22.275848    0.2899409 
  327100    1.0121481   0.17977387     20.59892    22.296537    0.3192327 
  327200    1.0198005   0.17760028    20.607673    22.314592   0.27793849 
  327300    1.0238405   0.17987855    20.603448    22.318703   0.44502064 
  327400    1.0287593    0.1832049    20.600229    22.326187   0.32830452 
  327500    1.0241649   0.18352651    20.606763    22.326153   0.26689667 
  327600    1.0327947   0.18287404     20.58858    22.320259      0.36871 
  327700    1.0090181   0.18379557    20.612168    22.309112   0.31919521 
  327800    1.0102031   0.18882231    20.607045    22.310793   0.16703889 
  327900    1.0201495   0.19106838    20.590387    22.311297    0.4258621 
  328000    1.0019213   0.19483348    20.606017    22.303357   0.30037092 
Loop time of 0.614558 on 4 procs (4 MPI x 1 OpenMP) for 2000 steps with 4000 atoms

Pair  time (%) = 0.168532 (27.4233)
Bond  time (%) = 0.0604647 (9.83872)
Neigh time (%) = 0.0338986 (5.51593)
Comm  time (%) = 0.14563 (23.6967)
Outpt time (%) = 0.00113046 (0.183947)
Other time (%) = 0.204902 (33.3414)

Nlocal:    1000 ave 1053 max 933 min
Histogram: 1 0 0 0 0 1 1 0 0 1
Nghost:    1043 ave 1093 max 1012 min
Histogram: 1 1 0 0 1 0 0 0 0 1
Neighs:    3079.5 ave 3436 max 2664 min
Histogram: 1 0 0 0 0 1 1 0 0 1

Total # of neighbors = 12318
Ave neighs/atom = 3.0795
Ave special neighs/atom = 5.925
Neighbor list builds = 42
Dangerous builds = 0
shell          head -n 2 Temp.txt | tail -n 1 >> Tempfile.txt
shell          head -n 2 Bond.txt | tail -n 1 >> Bondfile.txt
next           myTempStr
next           myBondStr
if "${myBond} <= 0" then "jump imdinput.txt nobonds"
jump           imdinput.txt loop2here

# specifies the run length in timesteps
run            2000
WARNING: Use special bonds = 0,1,1 with bond style fene (../bond_fene.cpp:188)
Memory usage per processor = 5.59029 Mbytes
Step Temp E_pair E_mol TotEng Press 
  328000    1.0019213   0.19483348    20.606017    22.303357   0.30037092 
  328100    1.0026418   0.19924704    20.596219    22.299053    0.2065287 
  328200   0.99430115   0.19977383     20.58179    22.272643   0.28980354 
  328300   0.98848429   0.19571557    20.582732    22.260803   0.32369102 
  328400   0.98983269   0.19163129    20.589925    22.265934   0.43447666 
  328500   0.98323173   0.19336412      20.6035    22.271343   0.29622973 
  328600   0.97261643   0.19357654     20.61543    22.267566   0.42614893 
  328700   0.99668313   0.19151976    20.581978    22.268149   0.23667937 
  328800   0.99191826   0.19202985    20.590457    22.269993   0.39660288 
  328900   0.99017213   0.19010778    20.591549    22.266544   0.48024347 
  329000    0.9880282   0.19152967    20.593097    22.266299   0.35369957 
  329100   0.99962375   0.19001549    20.580375    22.269452   0.32708255 
  329200   0.99396109   0.18606872     20.58967    22.266308   0.27317786 
  329300    1.0003303   0.18567539    20.568172    22.253967   0.47778655 
  329400   0.98373192   0.18906161    20.591063    22.255353   0.34179862 
  329500   0.97942503   0.19307547    20.597469    22.259314   0.33473623 
  329600   0.98156742   0.19424392    20.590013     22.25624    0.3637688 
  329700   0.99275689   0.19473571    20.575139    22.258638   0.59411768 
  329800   0.98636345   0.19324704    20.580774    22.253196   0.15945208 
  329900   0.98670931   0.18702861    20.603376    22.270098   0.25707965 
  330000    1.0114302   0.18792316     20.59221    22.296899   0.43753209 
Loop time of 0.648978 on 4 procs (4 MPI x 1 OpenMP) for 2000 steps with 4000 atoms

Pair  time (%) = 0.174469 (26.8837)
Bond  time (%) = 0.0616044 (9.49253)
Neigh time (%) = 0.0362485 (5.58548)
Comm  time (%) = 0.167355 (25.7874)
Outpt time (%) = 0.00117576 (0.181171)
Other time (%) = 0.208125 (32.0697)

Nlocal:    1000 ave 1050 max 916 min
Histogram: 1 0 0 0 0 1 0 0 0 2
Nghost:    1054.5 ave 1076 max 1043 min
Histogram: 1 1 1 0 0 0 0 0 0 1
Neighs:    3100 ave 3410 max 2586 min
Histogram: 1 0 0 0 0 1 0 0 1 1

Total # of neighbors = 12400
Ave neighs/atom = 3.1
Ave special neighs/atom = 5.925
Neighbor list builds = 42
Dangerous builds = 0
shell          head -n 2 Temp.txt | tail -n 1 >> Tempfile.txt
shell          head -n 2 Bond.txt | tail -n 1 >> Bondfile.txt
next           myTempStr
next           myBondStr
if "${myBond} <= 0" then "jump imdinput.txt nobonds"
jump           imdinput.txt loop2here

# specifies the run length in timesteps
run            2000
WARNING: Use special bonds = 0,1,1 with bond style fene (../bond_fene.cpp:188)
Memory usage per processor = 5.58981 Mbytes
Step Temp E_pair E_mol TotEng Press 
  330000    1.0114302   0.18792316     20.59221    22.296899   0.43753209 
  330100    1.0094271   0.18955576    20.594487    22.297804   0.52295126 
  330200    1.0315944   0.18963871    20.588432    22.325076   0.29151697 
  330300    1.0128209   0.18894495     20.62361    22.331406   0.29740601 
  330400    1.0187605   0.18986974    20.595338    22.312967   0.38258731 
  330500    1.0165483   0.19220806    20.594039    22.310688   0.46531102 
  330600    1.0201088   0.19402547    20.595873    22.319679   0.65583734 
  330700    1.0084598   0.19463968    20.604631    22.311582 0.0064315388 
  330800    1.0298546   0.19506614    20.589624    22.329086   0.44484239 
  330900    1.0171437   0.19697177    20.611848    22.334154  0.012236222 
  331000    1.0160381   0.19647676    20.613829    22.333981   0.35129958 
  331100     1.025737     0.199938    20.591807    22.329966   0.37884332 
  331200    1.0237145   0.20348997    20.599683    22.338361   0.55992043 
  331300    1.0059876   0.20386922    20.600443    22.312917   0.39925031 
  331400   0.99818269   0.20054449    20.605681    22.303125   0.21517787 
  331500   0.99976608   0.19579507    20.599643    22.294712   0.32547304 
  331600    1.0126627   0.19434772    20.604111    22.317073   0.41174629 
  331700    1.0110236   0.19123974    20.608335    22.315731    0.3459144 
  331800    1.0018615   0.18897532    20.588185    22.279577   0.46547446 
  331900    1.0123412   0.18495031    20.585386    22.288468   0.41325946 
  332000   0.99745137   0.18632408    20.603932    22.286059   0.28111509 
Loop time of 0.636458 on 4 procs (4 MPI x 1 OpenMP) for 2000 steps with 4000 atoms

Pair  time (%) = 0.17304 (27.1879)
Bond  time (%) = 0.0604371 (9.49585)
Neigh time (%) = 0.0356326 (5.59857)
Comm  time (%) = 0.159758 (25.1011)
Outpt time (%) = 0.00110406 (0.173469)
Other time (%) = 0.206487 (32.4431)

Nlocal:    1000 ave 1021 max 959 min
Histogram: 1 0 0 0 0 0 0 1 0 2
Nghost:    1076.25 ave 1094 max 1066 min
Histogram: 1 1 0 1 0 0 0 0 0 1
Neighs:    3115.25 ave 3224 max 2869 min
Histogram: 1 0 0 0 0 0 0 0 2 1

Total # of neighbors = 12461
Ave neighs/atom = 3.11525
Ave special neighs/atom = 5.925
Neighbor list builds = 43
Dangerous builds = 0
shell          head -n 2 Temp.txt | tail -n 1 >> Tempfile.txt
shell          head -n 2 Bond.txt | tail -n 1 >> Bondfile.txt
next           myTempStr
next           myBondStr
if "${myBond} <= 0" then "jump imdinput.txt nobonds"
jump           imdinput.txt loop2here

# specifies the run length in timesteps
run            2000
WARNING: Use special bonds = 0,1,1 with bond style fene (../bond_fene.cpp:188)
Memory usage per processor = 5.58297 Mbytes
Step Temp E_pair E_mol TotEng Press 
  332000   0.99745137   0.18632408    20.603932    22.286059   0.28111509 
  332100    1.0068085   0.19022801     20.58429    22.284353   0.23099343 
  332200    1.0028265   0.19067417    20.568684    22.263222   0.35355517 
  332300   0.99721864   0.19183553     20.58417     22.27146   0.25549145 
  332400   0.98619218   0.19879295    20.580159     22.25787   0.33630648 
  332500   0.98104039   0.19893244    20.581062    22.251187   0.43831094 
  332600   0.97695681   0.19455308    20.582154    22.241776   0.36189825 
  332700   0.98004521    0.1949707    20.579233    22.243904   0.30784029 
  332800   0.98314811   0.19014206    20.563868    22.228363    0.3613951 
  332900   0.98280807   0.18896362    20.571651    22.234458   0.19896164 
  333000   0.98818404   0.18528299    20.569032    22.236221   0.25584248 
  333100   0.98344432   0.18287821    20.570151    22.227827   0.48111367 
  333200   0.99537162   0.18352186    20.582426    22.258632   0.61322129 
  333300    0.9857274   0.18646867    20.595474    22.260164    0.1461827 
  333400   0.99326035   0.18724506    20.579743    22.256506   0.41394399 
  333500   0.99975982   0.18132755    20.588292    22.268885   0.40355926 
  333600   0.98615049   0.18211672    20.586554    22.247526    0.3756426 
  333700   0.98551755   0.18377259    20.597146    22.258825   0.29470113 
  333800   0.98629592   0.18744582    20.598682    22.265201   0.40401027 
  333900   0.99440635   0.19096275    20.577151     22.25935   0.25679692 
  334000   0.99276581   0.19418385    20.573831    22.256791   0.26429034 
Loop time of 0.620741 on 4 procs (4 MPI x 1 OpenMP) for 2000 steps with 4000 atoms

Pair  time (%) = 0.173208 (27.9034)
Bond  time (%) = 0.061658 (9.93296)
Neigh time (%) = 0.0329939 (5.31524)
Comm  time (%) = 0.14542 (23.4269)
Outpt time (%) = 0.00122637 (0.197565)
Other time (%) = 0.206235 (33.224)

Nlocal:    1000 ave 1015 max 972 min
Histogram: 1 0 0 0 0 0 1 0 0 2
Nghost:    1053 ave 1075 max 1022 min
Histogram: 1 0 0 0 0 1 0 0 1 1
Neighs:    3144 ave 3319 max 2974 min
Histogram: 1 0 0 0 1 1 0 0 0 1

Total # of neighbors = 12576
Ave neighs/atom = 3.144
Ave special neighs/atom = 5.925
Neighbor list builds = 41
Dangerous builds = 0
shell          head -n 2 Temp.txt | tail -n 1 >> Tempfile.txt
shell          head -n 2 Bond.txt | tail -n 1 >> Bondfile.txt
next           myTempStr
next           myBondStr
if "${myBond} <= 0" then "jump imdinput.txt nobonds"
jump           imdinput.txt loop2here

# specifies the run length in timesteps
run            2000
WARNING: Use special bonds = 0,1,1 with bond style fene (../bond_fene.cpp:188)
Memory usage per processor = 5.58028 Mbytes
Step Temp E_pair E_mol TotEng Press 
  334000   0.99276581   0.19418385    20.573831    22.256791   0.26429034 
  334100   0.98378482   0.19404613    20.593712    22.263067   0.22935002 
  334200    0.9963677   0.19490042     20.57567    22.264748   0.54870411 
  334300   0.98680814   0.19379269    20.586886    22.260521   0.27624124 
  334400   0.98333162   0.19525415    20.578129    22.248012   0.32399699 
  334500    0.9714453   0.19724013    20.567173    22.221217   0.32861255 
  334600    0.9672109   0.19680107    20.575941    22.223195   0.42842596 
  334700   0.96751198   0.19144599    20.577442    22.219793   0.33439158 
  334800   0.96925571   0.18780854    20.573684    22.215013    0.2339601 
  334900    0.9733773   0.17888376    20.580556    22.219141   0.21880582 
  335000   0.99247756   0.17445362    20.567055    22.229852   0.42589274 
  335100    0.9865409    0.1754782    20.589702    22.244621   0.29692314 
  335200    1.0002894   0.17917747    20.582254     22.26149   0.36792311 
  335300   0.99809218   0.18393772    20.599426    22.280128   0.13247609 
  335400    0.9919508   0.18627781    20.603763    22.277596   0.45890556 
  335500   0.99547918   0.18489075    20.595942    22.273678   0.22544071 
  335600     1.000232   0.18318308    20.594296    22.277451   0.40391976 
  335700    1.0100868   0.18611418     20.59209    22.292955   0.24909688 
  335800    1.0009397   0.19004101    20.594785     22.28586   0.47526391 
  335900   0.99607639   0.18878586    20.600013     22.28254   0.10562556 
  336000    1.0045088   0.18715934     20.58831    22.281855   0.40017988 
Loop time of 0.618406 on 4 procs (4 MPI x 1 OpenMP) for 2000 steps with 4000 atoms

Pair  time (%) = 0.169711 (27.4434)
Bond  time (%) = 0.061894 (10.0086)
Neigh time (%) = 0.032301 (5.22327)
Comm  time (%) = 0.148877 (24.0744)
Outpt time (%) = 0.00113177 (0.183015)
Other time (%) = 0.20449 (33.0673)

Nlocal:    1000 ave 1019 max 980 min
Histogram: 1 0 0 0 1 1 0 0 0 1
Nghost:    1046 ave 1121 max 1003 min
Histogram: 1 1 1 0 0 0 0 0 0 1
Neighs:    3048 ave 3142 max 2993 min
Histogram: 2 0 0 1 0 0 0 0 0 1

Total # of neighbors = 12192
Ave neighs/atom = 3.048
Ave special neighs/atom = 5.925
Neighbor list builds = 40
Dangerous builds = 0
shell          head -n 2 Temp.txt | tail -n 1 >> Tempfile.txt
shell          head -n 2 Bond.txt | tail -n 1 >> Bondfile.txt
next           myTempStr
next           myBondStr
if "${myBond} <= 0" then "jump imdinput.txt nobonds"
jump           imdinput.txt loop2here

# specifies the run length in timesteps
run            2000
WARNING: Use special bonds = 0,1,1 with bond style fene (../bond_fene.cpp:188)
Memory usage per processor = 5.58126 Mbytes
Step Temp E_pair E_mol TotEng Press 
  336000    1.0045088   0.18715934     20.58831    22.281855   0.40017988 
  336100     1.008419   0.18162164    20.580591    22.274463   0.38183708 
  336200    1.0024665   0.18198127    20.590938    22.276243   0.34325135 
  336300   0.99033202   0.18531032    20.589703     22.26014   0.17924765 
  336400   0.99240657   0.18785097    20.583494    22.259582   0.64854996 
  336500    0.9739358   0.18848414    20.594081    22.243103    0.2959885 
  336600   0.97311425   0.19404743    20.596133    22.249487   0.26482825 
  336700   0.97957891   0.19266594     20.58949    22.251157   0.33749351 
  336800   0.98809439    0.1932518    20.587277      22.2623   0.33978703 
  336900   0.99160587    0.1942429    20.574708    22.255988   0.38095676 
  337000   0.98057374   0.19823601    20.580117    22.248846   0.50189989 
  337100   0.98243325   0.20165651    20.588715    22.263653   0.31779141 
  337200   0.98539332   0.19711933    20.584277    22.259117   0.12807513 
  337300   0.99150951   0.18906284    20.584166    22.260122   0.43747436 
  337400   0.98717942    0.1854865    20.600802    22.266687  0.062156923 
  337500    1.0155715   0.18076726    20.597789    22.301532   0.52545963 
  337600   0.99181869   0.18126202    20.605122     22.27374     0.371589 
  337700    1.0008946   0.18720345    20.583132    22.271302   0.38198721 
  337800    1.0078989   0.19280554    20.587432    22.291708   0.38421085 
  337900     1.006198   0.19920336    20.586252    22.294375   0.22520855 
  338000   0.99578865   0.20020186    20.596429    22.289941   0.14526123 
Loop time of 0.622433 on 4 procs (4 MPI x 1 OpenMP) for 2000 steps with 4000 atoms

Pair  time (%) = 0.170522 (27.3961)
Bond  time (%) = 0.0609173 (9.78697)
Neigh time (%) = 0.0330803 (5.31469)
Comm  time (%) = 0.152499 (24.5005)
Outpt time (%) = 0.00112116 (0.180126)
Other time (%) = 0.204292 (32.8216)

Nlocal:    1000 ave 1014 max 978 min
Histogram: 1 0 0 0 0 0 1 1 0 1
Nghost:    1064.25 ave 1081 max 1051 min
Histogram: 1 0 0 1 1 0 0 0 0 1
Neighs:    3109.75 ave 3192 max 2976 min
Histogram: 1 0 0 0 0 0 0 2 0 1

Total # of neighbors = 12439
Ave neighs/atom = 3.10975
Ave special neighs/atom = 5.925
Neighbor list builds = 41
Dangerous builds = 0
shell          head -n 2 Temp.txt | tail -n 1 >> Tempfile.txt
shell          head -n 2 Bond.txt | tail -n 1 >> Bondfile.txt
next           myTempStr
next           myBondStr
if "${myBond} <= 0" then "jump imdinput.txt nobonds"
jump           imdinput.txt loop2here

# specifies the run length in timesteps
run            2000
WARNING: Use special bonds = 0,1,1 with bond style fene (../bond_fene.cpp:188)
Memory usage per processor = 5.58028 Mbytes
Step Temp E_pair E_mol TotEng Press 
  338000   0.99578865   0.20020186    20.596429    22.289941   0.14526123 
  338100   0.98397245   0.19993585    20.599433    22.274959   0.38576687 
  338200     0.994435   0.19992291    20.586744    22.277946   0.38932184 
  338300   0.99060195   0.20030079    20.592732    22.278564   0.13975922 
  338400   0.99201549   0.19802338    20.590557    22.276231   0.51468423 
  338500   0.99074388   0.19403026    20.601468    22.281243   0.47007861 
  338600     0.987467   0.19525853    20.594218    22.270307   0.20410879 
  338700    0.9930463   0.19276299    20.603588    22.285548   0.18611157 
  338800   0.99642448   0.18886007     20.59467    22.277794   0.39331492 
  338900    1.0009442   0.18650755     20.59493    22.282479   0.33009702 
  339000   0.98788918    0.1866411     20.59367    22.261775   0.45581418 
  339100   0.98840594   0.18767606    20.604904    22.274819   0.30592107 
  339200   0.99110867   0.19264259    20.594719    22.273653  -0.11610504 
  339300   0.98876754   0.19664298    20.582806    22.262229   0.54495618 
  339400   0.98193102   0.20002593    20.596281    22.268835   0.47605443 
  339500   0.99307464   0.19393206     20.58834    22.271512   0.36522456 
  339600   0.99487824   0.18951078    20.598209    22.279664   0.38315859 
  339700   0.99732404   0.19359681    20.595193    22.284402   0.18269722 
  339800   0.99192709   0.19330594    20.613974    22.294799   0.46906259 
  339900   0.99661645    0.1935295    20.597481    22.285561    0.3440353 
  340000    1.0079433   0.19479802    20.579374    22.285709   0.45045914 
Loop time of 0.62736 on 4 procs (4 MPI x 1 OpenMP) for 2000 steps with 4000 atoms

Pair  time (%) = 0.170706 (27.2102)
Bond  time (%) = 0.0609015 (9.70759)
Neigh time (%) = 0.033688 (5.3698)
Comm  time (%) = 0.15419 (24.5777)
Outpt time (%) = 0.00109941 (0.175243)
Other time (%) = 0.206775 (32.9595)

Nlocal:    1000 ave 1007 max 991 min
Histogram: 1 0 0 0 0 1 1 0 0 1
Nghost:    1058 ave 1070 max 1053 min
Histogram: 2 1 0 0 0 0 0 0 0 1
Neighs:    3121.5 ave 3212 max 2965 min
Histogram: 1 0 0 0 0 0 1 0 0 2

Total # of neighbors = 12486
Ave neighs/atom = 3.1215
Ave special neighs/atom = 5.925
Neighbor list builds = 41
Dangerous builds = 0
shell          head -n 2 Temp.txt | tail -n 1 >> Tempfile.txt
shell          head -n 2 Bond.txt | tail -n 1 >> Bondfile.txt
next           myTempStr
next           myBondStr
if "${myBond} <= 0" then "jump imdinput.txt nobonds"
jump           imdinput.txt loop2here

# specifies the run length in timesteps
run            2000
WARNING: Use special bonds = 0,1,1 with bond style fene (../bond_fene.cpp:188)
Memory usage per processor = 5.57931 Mbytes
Step Temp E_pair E_mol TotEng Press 
  340000    1.0079433   0.19479802    20.579374    22.285709   0.45045914 
  340100   0.99846508   0.19636993    20.598105    22.291798   0.24854332 
  340200     1.014871   0.19564763    20.581425    22.298998   0.50038219 
  340300    1.0171801   0.20082775    20.585072    22.311289   0.31123741 
  340400    1.0296465   0.20035754    20.572157    22.316599   0.33179475 
  340500   0.98154934   0.20353507    20.609159     22.28465   0.18498698 
  340600   0.98301619   0.20159674    20.587119    22.262872   0.33595665 
  340700   0.99328002   0.20043591    20.577185    22.267168   0.27163541 
  340800   0.99525054   0.19986074    20.588393    22.280756   0.76577711 
  340900   0.99713039   0.20021224    20.603001    22.298535   0.17009798 
  341000    1.0047467   0.20046018    20.572078    22.279282   0.16690695 
  341100   0.98636536   0.19832465    20.606034    22.283536   0.50130813 
  341200    1.0019931   0.20052254    20.584893     22.28803   0.30969788 
  341300    1.0125795   0.20082326    20.580701    22.300014   0.31943678 
  341400    1.0041262    0.1980475    20.585345    22.289205   0.32716743 
  341500    1.0044374   0.19578628    20.593576    22.295641   0.34978054 
  341600    1.0055881   0.19806914    20.603908    22.309982   0.36664638 
  341700    1.0190951   0.20238114    20.598514    22.329155    0.4117864 
  341800    1.0100611   0.20462556     20.60955    22.328889   0.34515956 
  341900    1.0142005   0.20480194    20.597431    22.323154   0.24913733 
  342000    1.0076399    0.2038473    20.597905    22.312834   0.20393666 
Loop time of 0.624079 on 4 procs (4 MPI x 1 OpenMP) for 2000 steps with 4000 atoms

Pair  time (%) = 0.172609 (27.6582)
Bond  time (%) = 0.0609425 (9.76519)
Neigh time (%) = 0.033735 (5.40556)
Comm  time (%) = 0.149771 (23.9987)
Outpt time (%) = 0.00112253 (0.179871)
Other time (%) = 0.205899 (32.9924)

Nlocal:    1000 ave 1034 max 975 min
Histogram: 1 0 0 2 0 0 0 0 0 1
Nghost:    1093 ave 1110 max 1077 min
Histogram: 1 0 1 0 0 0 0 1 0 1
Neighs:    3151.75 ave 3381 max 2963 min
Histogram: 1 0 0 1 1 0 0 0 0 1

Total # of neighbors = 12607
Ave neighs/atom = 3.15175
Ave special neighs/atom = 5.925
Neighbor list builds = 42
Dangerous builds = 0
shell          head -n 2 Temp.txt | tail -n 1 >> Tempfile.txt
shell          head -n 2 Bond.txt | tail -n 1 >> Bondfile.txt
next           myTempStr
next           myBondStr
if "${myBond} <= 0" then "jump imdinput.txt nobonds"
jump           imdinput.txt loop2here

# specifies the run length in timesteps
run            2000
WARNING: Use special bonds = 0,1,1 with bond style fene (../bond_fene.cpp:188)
Memory usage per processor = 5.5859 Mbytes
Step Temp E_pair E_mol TotEng Press 
  342000    1.0076399    0.2038473    20.597905    22.312834   0.20393666 
  342100     1.008898   0.20171437    20.589135    22.303818    0.4488433 
  342200    1.0024509   0.20324232    20.603497    22.310039   0.58173875 
  342300    1.0146832   0.20466455    20.597351    22.323659   0.50625889 
  342400    1.0176787   0.20708903    20.591394     22.32462   0.38166298 
  342500    1.0044964   0.20890474     20.59963    22.314903   0.18007816 
  342600    1.0109993   0.20394164    20.588712    22.308774   0.36604238 
  342700   0.99587729    0.2049938     20.59754    22.295977   0.26882487 
  342800   0.99270503   0.20399157    20.588441    22.281117   0.59102668 
  342900    1.0043018   0.20147987    20.579024     22.28658   0.30979241 
  343000   0.99559409   0.20174872    20.589392    22.284159   0.10812515 
  343100    1.0023294   0.20361444    20.586772    22.293505   0.28186558 
  343200     1.005769     0.205467    20.583236    22.296979   0.58212125 
  343300   0.99896415   0.20327459    20.600686    22.302032  0.049730412 
  343400    0.9979748   0.19924215     20.58723     22.28306   0.37811926 
  343500   0.99821222    0.1972233    20.596472    22.290639   0.32708009 
  343600    1.0012577   0.19643856    20.583965    22.281915   0.29656019 
  343700   0.99443401   0.19460455    20.601982    22.287865   0.36110991 
  343800   0.98973829   0.19574024    20.600349    22.280325   0.53304677 
  343900   0.98958601   0.19609476    20.601357     22.28146   0.47307281 
  344000   0.98532536   0.19417124    20.597443    22.269232   0.55415326 
Loop time of 0.61009 on 4 procs (4 MPI x 1 OpenMP) for 2000 steps with 4000 atoms

Pair  time (%) = 0.171212 (28.0633)
Bond  time (%) = 0.0603616 (9.89388)
Neigh time (%) = 0.0324178 (5.31361)
Comm  time (%) = 0.14203 (23.2802)
Outpt time (%) = 0.001131 (0.185382)
Other time (%) = 0.202938 (33.2637)

Nlocal:    1000 ave 1025 max 983 min
Histogram: 2 0 0 0 0 1 0 0 0 1
Nghost:    1087.5 ave 1093 max 1082 min
Histogram: 1 0 0 1 0 0 1 0 0 1
Neighs:    3074 ave 3288 max 2978 min
Histogram: 2 0 1 0 0 0 0 0 0 1

Total # of neighbors = 12296
Ave neighs/atom = 3.074
Ave special neighs/atom = 5.925
Neighbor list builds = 41
Dangerous builds = 0
shell          head -n 2 Temp.txt | tail -n 1 >> Tempfile.txt
shell          head -n 2 Bond.txt | tail -n 1 >> Bondfile.txt
next           myTempStr
next           myBondStr
if "${myBond} <= 0" then "jump imdinput.txt nobonds"
jump           imdinput.txt loop2here

# specifies the run length in timesteps
run            2000
WARNING: Use special bonds = 0,1,1 with bond style fene (../bond_fene.cpp:188)
Memory usage per processor = 5.5837 Mbytes
Step Temp E_pair E_mol TotEng Press 
  344000   0.98532536   0.19417124    20.597443    22.269232   0.55415326 
  344100   0.99109376   0.18914659      20.6089    22.284315   0.20630496 
  344200   0.99863426   0.18401105     20.59689    22.278478   0.11748966 
  344300   0.99801956   0.18240208    20.605796    22.284854   0.57777488 
  344400     1.012399   0.18037409    20.605413    22.304006   0.27630306 
  344500      1.02258   0.17780943    20.590991    22.302287   0.52825688 
  344600    1.0101244   0.17848088    20.594591     22.28788   0.17460057 
  344700    1.0047072   0.18057342    20.600017    22.287274   0.22145167 
  344800    1.0137758   0.18154052    20.597119    22.298943   0.30180664 
  344900    1.0217606   0.18278732    20.592994     22.30804   0.49328124 
  345000    1.0292058   0.18295085    20.584161    22.310535   0.51135332 
  345100    1.0199215   0.18648795    20.591653     22.30764   0.33875374 
  345200     1.009858   0.19284668    20.594878    22.302133   0.13865746 
  345300    1.0152123   0.19740001    20.580105    22.299943   0.25338751 
  345400    1.0035559   0.19751303    20.592199     22.29467   0.35279081 
  345500    1.0014115   0.19712948    20.575192    22.274063   0.42753701 
  345600   0.98873876   0.19947412    20.579099    22.261311   0.30327682 
  345700     0.974998   0.19813589    20.598636    22.258903   0.20550621 
  345800   0.97927511   0.19462445    20.583501    22.246671   0.34055703 
  345900   0.99378375   0.19335306    20.581441    22.265097   0.20512228 
  346000   0.99148325   0.19468213    20.575848    22.257383   0.43649561 
Loop time of 0.601098 on 4 procs (4 MPI x 1 OpenMP) for 2000 steps with 4000 atoms

Pair  time (%) = 0.165016 (27.4525)
Bond  time (%) = 0.0604692 (10.0598)
Neigh time (%) = 0.0329388 (5.47977)
Comm  time (%) = 0.139071 (23.1361)
Outpt time (%) = 0.00113302 (0.188492)
Other time (%) = 0.20247 (33.6833)

Nlocal:    1000 ave 1045 max 943 min
Histogram: 1 0 0 0 0 0 2 0 0 1
Nghost:    1078.25 ave 1098 max 1047 min
Histogram: 1 0 0 0 0 0 1 1 0 1
Neighs:    3095 ave 3442 max 2922 min
Histogram: 1 1 1 0 0 0 0 0 0 1

Total # of neighbors = 12380
Ave neighs/atom = 3.095
Ave special neighs/atom = 5.925
Neighbor list builds = 42
Dangerous builds = 0
shell          head -n 2 Temp.txt | tail -n 1 >> Tempfile.txt
shell          head -n 2 Bond.txt | tail -n 1 >> Bondfile.txt
next           myTempStr
next           myBondStr
if "${myBond} <= 0" then "jump imdinput.txt nobonds"
jump           imdinput.txt loop2here

# specifies the run length in timesteps
run            2000
WARNING: Use special bonds = 0,1,1 with bond style fene (../bond_fene.cpp:188)
Memory usage per processor = 5.58712 Mbytes
Step Temp E_pair E_mol TotEng Press 
  346000   0.99148325   0.19468213    20.575848    22.257383   0.43649561 
  346100   0.98337837   0.19583757    20.581682    22.252218   0.29640319 
  346200   0.98452197    0.1999089    20.591656    22.267979   0.44495418 
  346300    1.0035874   0.19941519    20.577829    22.282249    0.4310469 
  346400   0.98859507   0.19966001    20.604633    22.286814   0.10012328 
  346500    1.0083991   0.19771705    20.579604    22.289542   0.38590933 
  346600    1.0074443   0.19769025    20.599663    22.308142   0.21644302 
  346700    1.0192852     0.196392    20.576857    22.301795    0.5104982 
  346800    1.0034041    0.1962269    20.584169    22.285126   0.18877287 
  346900   0.98749234   0.19679971    20.599888    22.277556   0.29096373 
  347000   0.99427994   0.19791246    20.576309    22.265268   0.40433845 
  347100    1.0044417   0.19526656    20.589607     22.29116   0.21592772 
  347200    1.0044308   0.19544927    20.580135    22.281854   0.49782916 
  347300    1.0113808   0.19582951    20.580876    22.293398   0.49261686 
  347400   0.99011283   0.20105793    20.603617    22.289472   0.19768603 
  347500    0.9987728   0.20366485    20.581805    22.283255   0.31606152 
  347600     1.000505   0.20306245    20.593654    22.297098   0.30563356 
  347700    1.0110785   0.19582259    20.582785    22.294846   0.65614958 
  347800    1.0045967   0.19456695     20.59741    22.298495   0.46999595 
  347900    1.0016106   0.19605565    20.598437    22.296533   0.16451172 
  348000    1.0110045   0.19777901    20.579903     22.29381   0.46700501 
Loop time of 0.597823 on 4 procs (4 MPI x 1 OpenMP) for 2000 steps with 4000 atoms

Pair  time (%) = 0.167057 (27.9442)
Bond  time (%) = 0.0602453 (10.0775)
Neigh time (%) = 0.0327056 (5.47078)
Comm  time (%) = 0.135828 (22.7204)
Outpt time (%) = 0.00113338 (0.189585)
Other time (%) = 0.200854 (33.5976)

Nlocal:    1000 ave 1035 max 963 min
Histogram: 1 0 1 0 0 0 0 1 0 1
Nghost:    1063.75 ave 1095 max 1025 min
Histogram: 1 0 1 0 0 0 0 0 0 2
Neighs:    3110.5 ave 3362 max 2883 min
Histogram: 1 0 0 1 0 1 0 0 0 1

Total # of neighbors = 12442
Ave neighs/atom = 3.1105
Ave special neighs/atom = 5.925
Neighbor list builds = 42
Dangerous builds = 0
shell          head -n 2 Temp.txt | tail -n 1 >> Tempfile.txt
shell          head -n 2 Bond.txt | tail -n 1 >> Bondfile.txt
next           myTempStr
next           myBondStr
if "${myBond} <= 0" then "jump imdinput.txt nobonds"
jump           imdinput.txt loop2here

# specifies the run length in timesteps
run            2000
WARNING: Use special bonds = 0,1,1 with bond style fene (../bond_fene.cpp:188)
Memory usage per processor = 5.58639 Mbytes
Step Temp E_pair E_mol TotEng Press 
  348000    1.0110045   0.19777901    20.579903     22.29381   0.46700501 
  348100   0.99423984   0.19862401     20.60539    22.295001   0.18497629 
  348200    1.0092858   0.19527652    20.594699    22.303525   0.39617975 
  348300    1.0013601   0.19614719     20.58478    22.282592    0.6300281 
  348400    1.0068994   0.19590472    20.584426    22.290302   0.35176161 
  348500    1.0138715   0.19239082    20.571433    22.284251   0.39794308 
  348600    1.0033328   0.18544311     20.57849    22.268556   0.51358288 
  348700   0.98691527   0.18369333    20.605991    22.269687   0.23967443 
  348800    1.0006244   0.18497932    20.577267    22.262808   0.43366515 
  348900   0.99535757   0.18610295    20.593923    22.272689   0.43274559 
  349000   0.96744497   0.18944296    20.613732     22.25398   0.19451623 
  349100   0.99481945    0.1885638    20.580321    22.260741   0.46062318 
  349200   0.98745263   0.18764383    20.593742    22.262195  0.096220755 
  349300   0.98981874   0.19183495    20.588905    22.265097   0.21850883 
  349400   0.99768866   0.19025706    20.595615     22.28203   0.38599256 
  349500   0.99882968   0.18882886    20.608677    22.295376   0.26654006 
  349600    1.0039149   0.18970951    20.611923    22.307128   0.22761922 
  349700    1.0023688   0.19440713    20.601068    22.298652   0.50978434 
  349800   0.99754107   0.20095716     20.59634    22.293234   0.30899028 
  349900   0.99941801   0.19983493    20.600497    22.299084   0.27576873 
  350000    1.0127529   0.20093712    20.585408    22.305095   0.23645388 
Loop time of 0.601884 on 4 procs (4 MPI x 1 OpenMP) for 2000 steps with 4000 atoms

Pair  time (%) = 0.169015 (28.081)
Bond  time (%) = 0.060197 (10.0014)
Neigh time (%) = 0.0324166 (5.38586)
Comm  time (%) = 0.138563 (23.0216)
Outpt time (%) = 0.00113875 (0.189197)
Other time (%) = 0.200553 (33.3209)

Nlocal:    1000 ave 1022 max 973 min
Histogram: 1 0 0 1 0 0 0 0 1 1
Nghost:    1083 ave 1115 max 1042 min
Histogram: 1 0 0 0 0 1 0 1 0 1
Neighs:    3185.25 ave 3303 max 3126 min
Histogram: 2 0 1 0 0 0 0 0 0 1

Total # of neighbors = 12741
Ave neighs/atom = 3.18525
Ave special neighs/atom = 5.925
Neighbor list builds = 41
Dangerous builds = 0
shell          head -n 2 Temp.txt | tail -n 1 >> Tempfile.txt
shell          head -n 2 Bond.txt | tail -n 1 >> Bondfile.txt
next           myTempStr
next           myBondStr
if "${myBond} <= 0" then "jump imdinput.txt nobonds"
jump           imdinput.txt loop2here

# specifies the run length in timesteps
run            2000
WARNING: Use special bonds = 0,1,1 with bond style fene (../bond_fene.cpp:188)
Memory usage per processor = 5.58175 Mbytes
Step Temp E_pair E_mol TotEng Press 
  350000    1.0127529   0.20093712    20.585408    22.305095   0.23645388 
  350100   0.99655105   0.20288041    20.584456    22.281789   0.35329986 
  350200   0.98651838   0.20261763    20.599106    22.281131    0.3852606 
  350300   0.98665818     0.200349    20.591882    22.271849   0.35803205 
  350400   0.99173707   0.20434582    20.581808    22.273387   0.11312641 
  350500   0.98380023   0.20769087    20.581715    22.264737   0.51902101 
  350600    0.9850289   0.20520221     20.58527    22.267646   0.45212337 
  350700   0.99566934   0.20317906    20.588698    22.285008   0.23405707 
  350800    1.0107459   0.20314392    20.577312    22.296195   0.52703491 
  350900    1.0071938   0.20194721    20.596701    22.309061   0.37140066 
  351000    1.0045262   0.19942775    20.595137    22.300978   0.24295429 
  351100   0.99973004   0.19415628    20.602766    22.296142   0.33079183 
  351200    1.0181968   0.19352253    20.585665    22.306101   0.42169336 
  351300    1.0196975   0.19737517    20.584762    22.311301   0.25852522 
  351400    1.0131841   0.19772577    20.580462    22.297584   0.21301925 
  351500    1.0091497   0.19453692    20.574406    22.282289   0.29290117 
  351600    1.0001098   0.19302043    20.594316    22.287126   0.16626624 
  351700   0.99969458   0.19117637    20.581403    22.271747   0.57676294 
  351800   0.98335595   0.19169029    20.591479    22.257835   0.42434155 
  351900   0.97814387   0.19559534     20.59973    22.262174   0.31013028 
  352000   0.97321305   0.19915226    20.614663     22.27327   0.21747383 
Loop time of 0.611113 on 4 procs (4 MPI x 1 OpenMP) for 2000 steps with 4000 atoms

Pair  time (%) = 0.16964 (27.7593)
Bond  time (%) = 0.0601476 (9.84231)
Neigh time (%) = 0.03293 (5.38854)
Comm  time (%) = 0.145741 (23.8484)
Outpt time (%) = 0.00116074 (0.189939)
Other time (%) = 0.201493 (32.9715)

Nlocal:    1000 ave 1041 max 956 min
Histogram: 1 0 0 0 1 0 1 0 0 1
Nghost:    1083.75 ave 1122 max 1033 min
Histogram: 1 0 0 0 0 1 1 0 0 1
Neighs:    3111 ave 3366 max 2812 min
Histogram: 1 0 0 1 0 0 0 0 1 1

Total # of neighbors = 12444
Ave neighs/atom = 3.111
Ave special neighs/atom = 5.925
Neighbor list builds = 42
Dangerous builds = 0
shell          head -n 2 Temp.txt | tail -n 1 >> Tempfile.txt
shell          head -n 2 Bond.txt | tail -n 1 >> Bondfile.txt
next           myTempStr
next           myBondStr
if "${myBond} <= 0" then "jump imdinput.txt nobonds"
jump           imdinput.txt loop2here

# specifies the run length in timesteps
run            2000
WARNING: Use special bonds = 0,1,1 with bond style fene (../bond_fene.cpp:188)
Memory usage per processor = 5.58736 Mbytes
Step Temp E_pair E_mol TotEng Press 
  352000   0.97321305   0.19915226    20.614663     22.27327   0.21747383 
  352100    0.9972979    0.1983172    20.615133    22.309023   0.46810278 
  352200    1.0169395   0.19722655    20.599057    22.321311   0.51431357 
  352300     1.004758   0.20063305    20.595811    22.303205   0.46383543 
  352400   0.99729477   0.19891952    20.607233    22.301721   0.35049983 
  352500   0.99885494   0.19906243    20.607471    22.304441   0.23455906 
  352600    1.0016318   0.19706543    20.595336    22.294474   0.46863029 
  352700    1.0163519   0.19761068     20.58719    22.308947     0.603047 
  352800    1.0000482   0.19622802    20.609633    22.305558   0.14133055 
  352900    1.0050182   0.19073783    20.596991    22.294879   0.40179418 
  353000    1.0131098   0.18871464    20.583308    22.291307   0.24803445 
  353100    0.9999694   0.18631508    20.586744    22.272638   0.11720052 
  353200    1.0015703   0.18579898    20.598324    22.286103   0.25289271 
  353300    1.0140432   0.18753396    20.576083    22.284301   0.49618464 
  353400   0.99040114   0.19089766    20.602131    22.278259   0.60053084 
  353500     0.988936    0.1938156    20.607542    22.284391   0.46071544 
  353600   0.99517593   0.19361766     20.58525    22.271259   0.30046452 
  353700   0.99037684   0.19358321    20.599593     22.27837  0.051144444 
  353800   0.99446025   0.19433132    20.584299    22.269948   0.61524976 
  353900   0.97486892   0.19509317    20.604833    22.261864   0.03047335 
  354000   0.99588139   0.19523852    20.595674    22.284361   0.61872017 
Loop time of 0.596854 on 4 procs (4 MPI x 1 OpenMP) for 2000 steps with 4000 atoms

Pair  time (%) = 0.16731 (28.032)
Bond  time (%) = 0.0601364 (10.0756)
Neigh time (%) = 0.0317816 (5.32486)
Comm  time (%) = 0.134816 (22.5878)
Outpt time (%) = 0.00113428 (0.190043)
Other time (%) = 0.201675 (33.7898)

Nlocal:    1000 ave 1034 max 968 min
Histogram: 1 0 1 0 0 0 0 1 0 1
Nghost:    1086.25 ave 1107 max 1053 min
Histogram: 1 0 0 0 0 1 0 0 1 1
Neighs:    3053.5 ave 3326 max 2808 min
Histogram: 1 0 0 1 0 1 0 0 0 1

Total # of neighbors = 12214
Ave neighs/atom = 3.0535
Ave special neighs/atom = 5.925
Neighbor list builds = 41
Dangerous builds = 0
shell          head -n 2 Temp.txt | tail -n 1 >> Tempfile.txt
shell          head -n 2 Bond.txt | tail -n 1 >> Bondfile.txt
next           myTempStr
next           myBondStr
if "${myBond} <= 0" then "jump imdinput.txt nobonds"
jump           imdinput.txt loop2here

# specifies the run length in timesteps
run            2000
WARNING: Use special bonds = 0,1,1 with bond style fene (../bond_fene.cpp:188)
Memory usage per processor = 5.58639 Mbytes
Step Temp E_pair E_mol TotEng Press 
  354000   0.99588139   0.19523852    20.595674    22.284361   0.61872017 
  354100   0.99626867   0.19414121     20.60352    22.291691   0.25881561 
  354200    1.0006602   0.19066591    20.601701    22.292982   0.16994555 
  354300    1.0065725   0.19060601    20.592569    22.292657   0.46192538 
  354400   0.98932584   0.19453535    20.612052    22.290205   0.23137905 
  354500    1.0035213   0.19613244    20.581619    22.282657   0.27804985 
  354600   0.99201248   0.19647294    20.595651    22.279771   0.40047709 
  354700   0.99440065   0.19709282    20.594001    22.282322   0.19071428 
  354800    0.9995831   0.19392525    20.603457    22.296382    0.3930859 
  354900    1.0133262   0.19083088     20.58574     22.29618   0.27636883 
  355000    1.0115143   0.18574679    20.592131     22.29477   0.46050598 
  355100    1.0205655   0.18303251    20.572431    22.285929   0.22700192 
  355200     1.012761   0.18069784    20.582515    22.281974   0.28464018 
  355300    1.0005969   0.17893618    20.599819    22.279276   0.43877683 
  355400    1.0028132   0.17818626     20.57915     22.26118   0.22801453 
  355500    1.0052567   0.18220631    20.589674    22.279388   0.11425513 
  355600    1.0033324   0.18216942    20.584769    22.271561   0.14874581 
  355700   0.99603594   0.18096711    20.601277    22.275925   0.36392049 
  355800    1.0050281   0.18066257     20.60192    22.289748   0.28736636 
  355900    1.0128642   0.18235205    20.581934    22.283203   0.31294177 
  356000     1.008341   0.18628589    20.595223    22.293642    0.5334152 
Loop time of 0.591753 on 4 procs (4 MPI x 1 OpenMP) for 2000 steps with 4000 atoms

Pair  time (%) = 0.162649 (27.486)
Bond  time (%) = 0.0601158 (10.1589)
Neigh time (%) = 0.03241 (5.47695)
Comm  time (%) = 0.134715 (22.7655)
Outpt time (%) = 0.00111383 (0.188226)
Other time (%) = 0.200749 (33.9245)

Nlocal:    1000 ave 1036 max 954 min
Histogram: 1 0 1 0 0 0 0 0 0 2
Nghost:    1072.25 ave 1107 max 1056 min
Histogram: 1 2 0 0 0 0 0 0 0 1
Neighs:    3062.75 ave 3239 max 2836 min
Histogram: 1 0 0 1 0 0 0 0 0 2

Total # of neighbors = 12251
Ave neighs/atom = 3.06275
Ave special neighs/atom = 5.925
Neighbor list builds = 42
Dangerous builds = 0
shell          head -n 2 Temp.txt | tail -n 1 >> Tempfile.txt
shell          head -n 2 Bond.txt | tail -n 1 >> Bondfile.txt
next           myTempStr
next           myBondStr
if "${myBond} <= 0" then "jump imdinput.txt nobonds"
jump           imdinput.txt loop2here

# specifies the run length in timesteps
run            2000
WARNING: Use special bonds = 0,1,1 with bond style fene (../bond_fene.cpp:188)
Memory usage per processor = 5.58712 Mbytes
Step Temp E_pair E_mol TotEng Press 
  356000     1.008341   0.18628589    20.595223    22.293642    0.5334152 
  356100   0.98497789    0.1899843    20.612572    22.279654   0.38233537 
  356200    1.0072705   0.18814455     20.60454    22.303213   0.26927648 
  356300    1.0148864   0.18494385    20.605495    22.312388   0.32333178 
  356400    1.0056452   0.18371198    20.601281    22.293084   0.32644319 
  356500    1.0047286   0.18620819    20.596584    22.289509   0.23897342 
  356600    1.0067629   0.19008236    20.606243    22.306092   0.53713719 
  356700   0.99015284   0.19412734    20.607865    22.286851   0.24524455 
  356800   0.98078279    0.2009548    20.609726    22.281487   0.28506941 
  356900   0.98956311   0.19939713    20.583259     22.26663   0.53348119 
  357000   0.96867298   0.19980522     20.60454    22.256992   0.31960857 
  357100   0.97732278   0.20206828    20.610801    22.278487   0.38504022 
  357200   0.99177183   0.20314424      20.5933     22.28373   0.36621698 
  357300   0.99252431    0.1974226    20.588625    22.274462   0.52913464 
  357400    0.9723899   0.19195347    20.616424    22.266598   0.22036376 
  357500     1.005345   0.18651292    20.580538    22.274691   0.16832759 
  357600    1.0107044   0.18703103    20.590158    22.292866   0.48637589 
  357700     1.010809    0.1908955    20.592164    22.298894   0.29910544 
  357800   0.99821804   0.19641016    20.606258    22.299621   0.41010135 
  357900    0.9817861   0.20294516    20.600882    22.276138   0.36215793 
  358000   0.97063224   0.20373486    20.600829    22.260149   0.30410826 
Loop time of 0.613217 on 4 procs (4 MPI x 1 OpenMP) for 2000 steps with 4000 atoms

Pair  time (%) = 0.170849 (27.8611)
Bond  time (%) = 0.0613012 (9.99666)
Neigh time (%) = 0.0333044 (5.4311)
Comm  time (%) = 0.140269 (22.8743)
Outpt time (%) = 0.00113672 (0.18537)
Other time (%) = 0.206356 (33.6514)

Nlocal:    1000 ave 1037 max 968 min
Histogram: 1 1 0 0 0 0 1 0 0 1
Nghost:    1077.5 ave 1085 max 1067 min
Histogram: 1 0 0 0 0 1 0 1 0 1
Neighs:    3127.25 ave 3505 max 2788 min
Histogram: 1 0 0 0 2 0 0 0 0 1

Total # of neighbors = 12509
Ave neighs/atom = 3.12725
Ave special neighs/atom = 5.925
Neighbor list builds = 42
Dangerous builds = 0
shell          head -n 2 Temp.txt | tail -n 1 >> Tempfile.txt
shell          head -n 2 Bond.txt | tail -n 1 >> Bondfile.txt
next           myTempStr
next           myBondStr
if "${myBond} <= 0" then "jump imdinput.txt nobonds"
jump           imdinput.txt loop2here

# specifies the run length in timesteps
run            2000
WARNING: Use special bonds = 0,1,1 with bond style fene (../bond_fene.cpp:188)
Memory usage per processor = 5.58614 Mbytes
Step Temp E_pair E_mol TotEng Press 
  358000   0.97063224   0.20373486    20.600829    22.260149   0.30410826 
  358100   0.98020848   0.19810757    20.604508     22.27256    0.4376738 
  358200    1.0014309   0.19486927    20.574627    22.271267   0.52185987 
  358300   0.99191912   0.19455215    20.594298    22.276357   0.21240113 
  358400   0.99657451   0.19083863    20.587542    22.272869   0.32518892 
  358500   0.99249233    0.1900716    20.602736    22.281174    0.4202188 
  358600   0.99114789   0.19062107    20.598893    22.275864   0.30841909 
  358700    1.0051552   0.19061645    20.591367    22.289339   0.30892357 
  358800    1.0080993   0.19578181    20.592326    22.299878   0.35106678 
  358900    1.0076724   0.19721444    20.608032    22.316377   0.13653769 
  359000    1.0180934   0.19629292    20.587686    22.310737   0.38868807 
  359100   0.99707047     0.195568    20.613284    22.304083   0.33564131 
  359200    1.0055311   0.18948864    20.601319    22.298728   0.54331459 
  359300    1.0073567   0.18558702    20.607065    22.303309   0.24218112 
  359400    1.0005163   0.18425399    20.601652    22.286305   0.42015803 
  359500    1.0090613   0.18455376    20.597179    22.294946   0.28848859 
  359600   0.99288958   0.18762494    20.601321    22.277908   0.37115032 
  359700   0.99325006    0.1903628    20.607589    22.287454   0.20920774 
  359800   0.99674244   0.18848899    20.605092     22.28832   0.40641953 
  359900    1.0080501   0.18658741    20.604675    22.302959   0.55608856 
  360000   0.99684977    0.1887537    20.607444    22.291099   0.26764251 
Loop time of 0.612892 on 4 procs (4 MPI x 1 OpenMP) for 2000 steps with 4000 atoms

Pair  time (%) = 0.171577 (27.9947)
Bond  time (%) = 0.061482 (10.0315)
Neigh time (%) = 0.0331572 (5.40997)
Comm  time (%) = 0.140597 (22.9399)
Outpt time (%) = 0.0011698 (0.190866)
Other time (%) = 0.204909 (33.4331)

Nlocal:    1000 ave 1035 max 948 min
Histogram: 1 0 0 0 1 0 0 0 0 2
Nghost:    1103 ave 1110 max 1093 min
Histogram: 1 0 0 0 1 0 0 0 1 1
Neighs:    3044.5 ave 3253 max 2762 min
Histogram: 1 0 0 0 1 0 0 0 1 1

Total # of neighbors = 12178
Ave neighs/atom = 3.0445
Ave special neighs/atom = 5.925
Neighbor list builds = 42
Dangerous builds = 0
shell          head -n 2 Temp.txt | tail -n 1 >> Tempfile.txt
shell          head -n 2 Bond.txt | tail -n 1 >> Bondfile.txt
next           myTempStr
next           myBondStr
if "${myBond} <= 0" then "jump imdinput.txt nobonds"
jump           imdinput.txt loop2here

# specifies the run length in timesteps
run            2000
WARNING: Use special bonds = 0,1,1 with bond style fene (../bond_fene.cpp:188)
Memory usage per processor = 5.58541 Mbytes
Step Temp E_pair E_mol TotEng Press 
  360000   0.99684977    0.1887537    20.607444    22.291099   0.26764251 
  360100   0.99958305   0.19029313    20.618419    22.307712   0.37748825 
  360200   0.98347915   0.19297226    20.615573    22.283395   0.22489394 
  360300   0.99486763   0.19275827    20.604793     22.28948   0.56880851 
  360400    1.0088841   0.19043785    20.589492    22.292878   0.29313105 
  360500   0.99343385   0.19092011    20.601508    22.282206   0.23699084 
  360600   0.98392712   0.19118164    20.597542    22.264245   0.32672152 
  360700   0.97567922    0.1927158    20.589107    22.244976   0.41803871 
  360800   0.99620952   0.19095902    20.587428    22.272327   0.72547199 
  360900   0.99019667   0.19272334    20.603911    22.281558   0.37567241 
  361000   0.99508149   0.19138377    20.611884    22.295517  0.098743887 
  361100   0.98861838   0.19073701    20.610251    22.283545   0.34863972 
  361200   0.98255109   0.19581846    20.605707    22.274984   0.36073138 
  361300   0.99312697   0.19647227    20.591311    22.277101   0.31954158 
  361400    0.9901573   0.19432612    20.598121    22.277312   0.44638995 
  361500   0.99251293   0.19300371    20.602286    22.283687   0.20146577 
  361600    1.0071352   0.19008912    20.604179    22.304593   0.44175401 
  361700    1.0214585   0.18942733    20.590155    22.311387   0.49582295 
  361800    1.0159873   0.18493823     20.60939    22.317928   0.41639672 
  361900    1.0226044   0.18433814    20.588623    22.306485   0.20043152 
  362000    1.0111549   0.18549509     20.59204    22.293888   0.55417947 
Loop time of 0.596113 on 4 procs (4 MPI x 1 OpenMP) for 2000 steps with 4000 atoms

Pair  time (%) = 0.167493 (28.0976)
Bond  time (%) = 0.061211 (10.2684)
Neigh time (%) = 0.0311456 (5.22479)
Comm  time (%) = 0.133445 (22.3858)
Outpt time (%) = 0.00112933 (0.189449)
Other time (%) = 0.201689 (33.834)

Nlocal:    1000 ave 1050 max 942 min
Histogram: 1 0 0 1 0 0 0 1 0 1
Nghost:    1115 ave 1142 max 1101 min
Histogram: 2 0 1 0 0 0 0 0 0 1
Neighs:    3096 ave 3452 max 2752 min
Histogram: 1 0 0 1 0 0 1 0 0 1

Total # of neighbors = 12384
Ave neighs/atom = 3.096
Ave special neighs/atom = 5.925
Neighbor list builds = 40
Dangerous builds = 0
shell          head -n 2 Temp.txt | tail -n 1 >> Tempfile.txt
shell          head -n 2 Bond.txt | tail -n 1 >> Bondfile.txt
next           myTempStr
next           myBondStr
if "${myBond} <= 0" then "jump imdinput.txt nobonds"
jump           imdinput.txt loop2here

# specifies the run length in timesteps
run            2000
WARNING: Use special bonds = 0,1,1 with bond style fene (../bond_fene.cpp:188)
Memory usage per processor = 5.5881 Mbytes
Step Temp E_pair E_mol TotEng Press 
  362000    1.0111549   0.18549509     20.59204    22.293888   0.55417947 
  362100    1.0018061   0.18854112    20.596118    22.286993  0.090143876 
  362200    1.0100808   0.19147975    20.597767    22.303989   0.33112764 
  362300    1.0006034   0.19173261    20.606564    22.298826   0.31900418 
  362400    1.0043067   0.19099056    20.586468    22.283542   0.44556092 
  362500   0.99888506   0.19473712    20.587403    22.280093   0.34370234 
  362600    1.0036493   0.19531448    20.592788      22.2932   0.40627017 
  362700   0.98933454   0.19853003    20.604905    22.287066  0.099574813 
  362800    0.9755778   0.19951908    20.597872    22.260392   0.41560972 
  362900   0.98008504   0.19781517    20.583516    22.251091   0.41422246 
  363000    0.9887862   0.19688985    20.593519    22.273218   0.27064007 
  363100   0.97703566   0.19483301    20.594079    22.254099   0.20006025 
  363200   0.98331212   0.19239571    20.610836    22.277831   0.33268189 
  363300    1.0023422    0.1946096    20.583702    22.281449   0.38203678 
  363400   0.99392503   0.20117183    20.598774    22.290461   0.30543291 
  363500   0.99595824   0.20535023    20.584455    22.283369   0.43042935 
  363600   0.99067197   0.20761253    20.582264    22.275513   0.29514495 
  363700   0.98844283   0.20749243    20.584003    22.273789   0.32792528 
  363800     1.009336   0.20312945    20.582299    22.299054   0.56622649 
  363900    0.9976954   0.19728193    20.613727    22.307177 -0.0060956947 
  364000    1.0061943    0.1934937    20.588714    22.291122   0.38495782 
Loop time of 0.608455 on 4 procs (4 MPI x 1 OpenMP) for 2000 steps with 4000 atoms

Pair  time (%) = 0.171887 (28.2497)
Bond  time (%) = 0.0608419 (9.99941)
Neigh time (%) = 0.0314531 (5.16933)
Comm  time (%) = 0.139593 (22.9422)
Outpt time (%) = 0.00117701 (0.193443)
Other time (%) = 0.203504 (33.446)

Nlocal:    1000 ave 1056 max 956 min
Histogram: 1 0 1 0 1 0 0 0 0 1
Nghost:    1096.5 ave 1121 max 1074 min
Histogram: 1 1 0 0 0 0 0 1 0 1
Neighs:    3096.75 ave 3389 max 2877 min
Histogram: 1 0 1 0 1 0 0 0 0 1

Total # of neighbors = 12387
Ave neighs/atom = 3.09675
Ave special neighs/atom = 5.925
Neighbor list builds = 40
Dangerous builds = 0
shell          head -n 2 Temp.txt | tail -n 1 >> Tempfile.txt
shell          head -n 2 Bond.txt | tail -n 1 >> Bondfile.txt
next           myTempStr
next           myBondStr
if "${myBond} <= 0" then "jump imdinput.txt nobonds"
jump           imdinput.txt loop2here

# specifies the run length in timesteps
run            2000
WARNING: Use special bonds = 0,1,1 with bond style fene (../bond_fene.cpp:188)
Memory usage per processor = 5.59274 Mbytes
Step Temp E_pair E_mol TotEng Press 
  364000    1.0061943    0.1934937    20.588714    22.291122   0.38495782 
  364100   0.98537123    0.1964642    20.607667    22.281818    0.4367582 
  364200   0.99831037   0.19955802    20.584452    22.281101   0.42144534 
  364300   0.99590694   0.19962663    20.591667     22.28478   0.17217108 
  364400    1.0019263   0.19235683    20.605168    22.300038   0.27636106 
  364500    1.0114897   0.19095567    20.595234    22.303045   0.61974495 
  364600    1.0054823   0.18889032    20.605938    22.302674  0.036954628 
  364700    1.0051157   0.18925912    20.590615    22.287171   0.51552941 
  364800   0.99631217   0.18747411     20.60805    22.289619   0.30179316 
  364900    1.0096247   0.18808895    20.593298    22.295446   0.45248942 
  365000   0.99585613    0.1887537    20.586683    22.268847   0.41187895 
  365100   0.99863586   0.19079637    20.601984     22.29036   0.17710242 
  365200    1.0037566   0.19203658     20.60183    22.299125   0.27158668 
  365300    1.0230982   0.18865786    20.595392    22.318314   0.53315363 
  365400    1.0174715   0.18959952    20.588312    22.303738   0.34677439 
  365500   0.99103997   0.19057476    20.602495    22.279258   0.37721574 
  365600   0.99202111   0.18800774    20.606223    22.281891   0.15883769 
  365700   0.99308144   0.18785004    20.595053    22.272153   0.31797849 
  365800    0.9844058   0.18774883    20.586509    22.250497   0.34875741 
  365900   0.99453933   0.18577601    20.573401    22.250613   0.53612193 
  366000    1.0002119   0.18055907    20.590951    22.271452  0.054773108 
Loop time of 0.609252 on 4 procs (4 MPI x 1 OpenMP) for 2000 steps with 4000 atoms

Pair  time (%) = 0.16855 (27.6651)
Bond  time (%) = 0.0616286 (10.1154)
Neigh time (%) = 0.0340397 (5.58712)
Comm  time (%) = 0.13918 (22.8445)
Outpt time (%) = 0.00117356 (0.192622)
Other time (%) = 0.20468 (33.5952)

Nlocal:    1000 ave 1045 max 958 min
Histogram: 1 0 0 1 0 1 0 0 0 1
Nghost:    1088 ave 1100 max 1068 min
Histogram: 1 0 0 0 0 0 0 2 0 1
Neighs:    3025.5 ave 3308 max 2805 min
Histogram: 1 0 0 1 1 0 0 0 0 1

Total # of neighbors = 12102
Ave neighs/atom = 3.0255
Ave special neighs/atom = 5.925
Neighbor list builds = 43
Dangerous builds = 0
shell          head -n 2 Temp.txt | tail -n 1 >> Tempfile.txt
shell          head -n 2 Bond.txt | tail -n 1 >> Bondfile.txt
next           myTempStr
next           myBondStr
if "${myBond} <= 0" then "jump imdinput.txt nobonds"
jump           imdinput.txt loop2here

# specifies the run length in timesteps
run            2000
WARNING: Use special bonds = 0,1,1 with bond style fene (../bond_fene.cpp:188)
Memory usage per processor = 5.58785 Mbytes
Step Temp E_pair E_mol TotEng Press 
  366000    1.0002119   0.18055907    20.590951    22.271452  0.054773108 
  366100    1.0082075   0.17891832      20.5775    22.268351   0.42924123 
  366200   0.98810284   0.17909466    20.601421    22.262299   0.26271975 
  366300   0.99431903   0.17907578    20.592762    22.262943   0.38914988 
  366400   0.99499562   0.18474062    20.587185    22.264046   0.38617707 
  366500    1.0010226   0.18822025    20.596035    22.285414   0.21503756 
  366600    1.0218227    0.1893846    20.574668    22.296404   0.35050639 
  366700    1.0149109   0.19187367    20.574421     22.28828   0.45338893 
  366800    1.0014773   0.19316989    20.589618    22.284628   0.23845868 
  366900     1.012593   0.19948327    20.592648    22.310641   0.20992838 
  367000    1.0033353   0.20290929    20.597771    22.305307   0.68416063 
  367100    1.0019058   0.20278519    20.593046    22.298314   0.17964547 
  367200    1.0093979   0.20050392     20.58457    22.298792   0.19568774 
  367300    1.0030353   0.19449601    20.592663    22.291335   0.26375513 
  367400     1.009366   0.19329921    20.605728    22.312698   0.41267981 
  367500    1.0051046   0.19376599    20.599568    22.300614   0.31316182 
  367600    1.0078963   0.19425079    20.604115    22.309833   0.36986429 
  367700    1.0114225   0.19650334    20.586601    22.299859   0.51988581 
  367800   0.99799741   0.19444718     20.58938    22.280449   0.42921463 
  367900   0.97946668   0.19466859    20.606405    22.269906   0.12884419 
  368000    0.9956505   0.19090384    20.582797    22.266803   0.52787786 
Loop time of 0.620946 on 4 procs (4 MPI x 1 OpenMP) for 2000 steps with 4000 atoms

Pair  time (%) = 0.1693 (27.2649)
Bond  time (%) = 0.0613562 (9.88108)
Neigh time (%) = 0.0347263 (5.59248)
Comm  time (%) = 0.149975 (24.1527)
Outpt time (%) = 0.00108123 (0.174126)
Other time (%) = 0.204507 (32.9348)

Nlocal:    1000 ave 1048 max 964 min
Histogram: 1 0 1 0 1 0 0 0 0 1
Nghost:    1061 ave 1084 max 1024 min
Histogram: 1 0 0 0 0 0 0 2 0 1
Neighs:    3076.75 ave 3243 max 2826 min
Histogram: 1 0 0 0 0 0 1 1 0 1

Total # of neighbors = 12307
Ave neighs/atom = 3.07675
Ave special neighs/atom = 5.925
Neighbor list builds = 43
Dangerous builds = 0
shell          head -n 2 Temp.txt | tail -n 1 >> Tempfile.txt
shell          head -n 2 Bond.txt | tail -n 1 >> Bondfile.txt
next           myTempStr
next           myBondStr
if "${myBond} <= 0" then "jump imdinput.txt nobonds"
jump           imdinput.txt loop2here

# specifies the run length in timesteps
run            2000
WARNING: Use special bonds = 0,1,1 with bond style fene (../bond_fene.cpp:188)
Memory usage per processor = 5.58907 Mbytes
Step Temp E_pair E_mol TotEng Press 
  368000    0.9956505   0.19090384    20.582797    22.266803   0.52787786 
  368100     1.000711   0.18815145    20.588639    22.277482   0.30139406 
  368200    1.0016058   0.18669584    20.589769    22.278498   0.39318708 
  368300    0.9838743   0.18874734    20.598294    22.262483   0.26235723 
  368400   0.99429034   0.18972187    20.605282    22.286066   0.65556358 
  368500   0.99657161   0.19177515    20.594696    22.280955   0.36518089 
  368600     1.006379   0.19418769    20.585883    22.289262    0.2730042 
  368700    1.0009109   0.19425853    20.598744    22.293993   0.17695838 
  368800   0.99361073     0.192915    20.600027    22.282985  0.091010335 
  368900    0.9950659   0.19339756    20.590474    22.276097   0.34594458 
  369000   0.98225972   0.19687347    20.592437    22.262331   0.32508608 
  369100   0.98387058   0.19448832     20.59799    22.267916   0.41955469 
  369200   0.98266754   0.19271466    20.610401    22.276748   0.33063322 
  369300   0.98535003   0.19065887     20.60818    22.276494   0.44625833 
  369400   0.99021896   0.18560286    20.591598    22.262158    0.4694947 
  369500   0.99234087    0.1831944     20.60698    22.278314    0.4300891 
  369600    1.0039622   0.18593433    20.602198    22.293699   0.18648185 
  369700   0.99361087   0.18684786    20.610981    22.287873   0.24057488 
  369800    0.9974466   0.18792668    20.600925    22.284647   0.44028517 
  369900   0.99414725   0.19223074    20.602071     22.28515   0.41913344 
  370000   0.98757005   0.19513333    20.611188    22.287306    0.2808128 
Loop time of 0.627552 on 4 procs (4 MPI x 1 OpenMP) for 2000 steps with 4000 atoms

Pair  time (%) = 0.171192 (27.2793)
Bond  time (%) = 0.0619582 (9.873)
Neigh time (%) = 0.034891 (5.55986)
Comm  time (%) = 0.155029 (24.7038)
Outpt time (%) = 0.00101113 (0.161124)
Other time (%) = 0.203471 (32.4229)

Nlocal:    1000 ave 1038 max 983 min
Histogram: 2 0 1 0 0 0 0 0 0 1
Nghost:    1042.5 ave 1082 max 1006 min
Histogram: 1 1 0 0 0 0 0 1 0 1
Neighs:    3073.25 ave 3336 max 2944 min
Histogram: 2 0 1 0 0 0 0 0 0 1

Total # of neighbors = 12293
Ave neighs/atom = 3.07325
Ave special neighs/atom = 5.925
Neighbor list builds = 42
Dangerous builds = 0
shell          head -n 2 Temp.txt | tail -n 1 >> Tempfile.txt
shell          head -n 2 Bond.txt | tail -n 1 >> Bondfile.txt
next           myTempStr
next           myBondStr
if "${myBond} <= 0" then "jump imdinput.txt nobonds"
jump           imdinput.txt loop2here

# specifies the run length in timesteps
run            2000
WARNING: Use special bonds = 0,1,1 with bond style fene (../bond_fene.cpp:188)
Memory usage per processor = 5.58663 Mbytes
Step Temp E_pair E_mol TotEng Press 
  370000   0.98757005   0.19513333    20.611188    22.287306    0.2808128 
  370100   0.99700397   0.20037437     20.59375    22.289256    0.5891304 
  370200   0.98654375   0.20584447    20.595871    22.281161   0.37748957 
  370300   0.97951059     0.202073    20.600095    22.271067   0.13233947 
  370400   0.98156026    0.1989247     20.59728    22.268177   0.44658866 
  370500   0.98598164   0.19544249    20.601284    22.275329   0.44616862 
  370600   0.99402816   0.19546248    20.607962    22.294094  0.080579184 
  370700    1.0009721   0.19381904    20.591328     22.28623   0.53804957 
  370800    1.0118579   0.18667154     20.58153    22.285609   0.41038379 
  370900    1.0025075   0.18411745    20.589946    22.277449   0.26662167 
  371000    0.9884461   0.18581531    20.596688    22.264802    0.3171442 
  371100     1.003605   0.18752517     20.58089    22.273446   0.49445954 
  371200   0.99724102   0.19077543    20.598773    22.285036   0.41084902 
  371300    0.9911267   0.19172623    20.614473    22.292518   0.29700167 
  371400    1.0007082   0.18361635    20.595048    22.279351   0.48825206 
  371500    1.0060258   0.18476626    20.600176    22.293603  0.099424223 
  371600   0.99993197   0.18548554    20.614885    22.299893   0.35014879 
  371700    1.0094112   0.18520934    20.604271    22.303219   0.21876127 
  371800   0.99847046   0.18246053    20.602405    22.282196   0.30919047 
  371900    1.0020003   0.17903556    20.596091    22.277752   0.63354584 
  372000   0.99181467     0.180292    20.602704    22.270346   0.22693842 
Loop time of 0.625247 on 4 procs (4 MPI x 1 OpenMP) for 2000 steps with 4000 atoms

Pair  time (%) = 0.171022 (27.3527)
Bond  time (%) = 0.0609984 (9.75589)
Neigh time (%) = 0.0340064 (5.43888)
Comm  time (%) = 0.154535 (24.7159)
Outpt time (%) = 0.00101054 (0.161622)
Other time (%) = 0.203674 (32.575)

Nlocal:    1000 ave 1025 max 985 min
Histogram: 1 0 2 0 0 0 0 0 0 1
Nghost:    1036.5 ave 1059 max 1016 min
Histogram: 1 1 0 0 0 0 0 1 0 1
Neighs:    3054.25 ave 3171 max 2968 min
Histogram: 1 0 0 2 0 0 0 0 0 1

Total # of neighbors = 12217
Ave neighs/atom = 3.05425
Ave special neighs/atom = 5.925
Neighbor list builds = 41
Dangerous builds = 0
shell          head -n 2 Temp.txt | tail -n 1 >> Tempfile.txt
shell          head -n 2 Bond.txt | tail -n 1 >> Bondfile.txt
next           myTempStr
next           myBondStr
if "${myBond} <= 0" then "jump imdinput.txt nobonds"
jump           imdinput.txt loop2here

# specifies the run length in timesteps
run            2000
WARNING: Use special bonds = 0,1,1 with bond style fene (../bond_fene.cpp:188)
Memory usage per processor = 5.58273 Mbytes
Step Temp E_pair E_mol TotEng Press 
  372000   0.99181467     0.180292    20.602704    22.270346   0.22693842 
  372100   0.99328981   0.17954239    20.613585     22.28269   0.10898837 
  372200    1.0064841   0.17900351    20.599296    22.287648   0.44781599 
  372300    1.0244159   0.18184944    20.586635    22.304724   0.47522327 
  372400    1.0147782   0.18206317    20.601354    22.305204   0.25828941 
  372500    1.0136705   0.18503078    20.597602    22.302759   0.27580426 
  372600    1.0033392   0.19247535    20.585721    22.282829   0.35065257 
  372700   0.98481144    0.1968608    20.601596    22.275304   0.26502686 
  372800   0.99167823    0.1975531    20.601795    22.286494   0.35119144 
  372900   0.98520107   0.19673977     20.59111    22.265282   0.19255228 
  373000   0.99376675   0.19435755    20.598356    22.282991   0.56671488 
  373100   0.98141097   0.19001413    20.606754    22.268516   0.49981886 
  373200   0.97823809   0.18774902     20.60578    22.260519   0.37415184 
  373300   0.97532524   0.18982914    20.594438     22.24689   0.17924082 
  373400   0.97702842   0.19470488    20.589531    22.249413   0.26087347 
  373500   0.97517863   0.19796184     20.58629    22.246654    0.3700952 
  373600   0.97624086   0.19249384    20.599328    22.255817   0.48517621 
  373700    0.9909151    0.1902192    20.595525    22.271746   0.23997121 
  373800    1.0016339   0.18725198    20.578897    22.268224   0.38507004 
  373900   0.99185819   0.18363367    20.587838    22.258887   0.49060111 
  374000   0.99331671   0.17871277    20.603495    22.271811   0.03260822 
Loop time of 0.613651 on 4 procs (4 MPI x 1 OpenMP) for 2000 steps with 4000 atoms

Pair  time (%) = 0.168076 (27.3895)
Bond  time (%) = 0.0616332 (10.0437)
Neigh time (%) = 0.0345736 (5.63409)
Comm  time (%) = 0.147188 (23.9857)
Outpt time (%) = 0.00103658 (0.168921)
Other time (%) = 0.201143 (32.7781)

Nlocal:    1000 ave 1012 max 989 min
Histogram: 1 0 0 0 2 0 0 0 0 1
Nghost:    1100.25 ave 1130 max 1077 min
Histogram: 1 0 0 1 1 0 0 0 0 1
Neighs:    3070.25 ave 3113 max 3034 min
Histogram: 1 0 0 1 0 1 0 0 0 1

Total # of neighbors = 12281
Ave neighs/atom = 3.07025
Ave special neighs/atom = 5.925
Neighbor list builds = 43
Dangerous builds = 0
shell          head -n 2 Temp.txt | tail -n 1 >> Tempfile.txt
shell          head -n 2 Bond.txt | tail -n 1 >> Bondfile.txt
next           myTempStr
next           myBondStr
if "${myBond} <= 0" then "jump imdinput.txt nobonds"
jump           imdinput.txt loop2here

# specifies the run length in timesteps
run            2000
WARNING: Use special bonds = 0,1,1 with bond style fene (../bond_fene.cpp:188)
Memory usage per processor = 5.58004 Mbytes
Step Temp E_pair E_mol TotEng Press 
  374000   0.99331671   0.17871277    20.603495    22.271811   0.03260822 
  374100    1.0021242   0.17465562    20.595045    22.272511   0.47840466 
  374200   0.99486965   0.17556323    20.597583    22.265078    0.3813042 
  374300    1.0128699   0.17900803    20.568139    22.266073   0.17965665 
  374400   0.98570964   0.18606828    20.593471    22.257734   0.43177398 
  374500   0.99083422   0.19180385     20.58776    22.265444   0.26621765 
  374600   0.98892666   0.19030436     20.58479    22.258113   0.43204207 
  374700   0.98543816   0.18916473    20.598669    22.265622   0.31748946 
  374800   0.99217262   0.18766634    20.587999    22.263552   0.41989062 
  374900   0.98838402   0.18771909    20.608956    22.278881   0.24005083 
  375000    1.0004548    0.1867062    20.602515    22.289528   0.41461889 
  375100    1.0098249   0.18626685    20.589964     22.29059   0.29533164 
  375200     1.004833   0.18662202    20.589709    22.283204   0.60612745 
  375300   0.98174053   0.18908616    20.600215    22.261544   0.48334578 
  375400   0.98993397   0.19098238    20.600156    22.275668   0.26854645 
  375500   0.98091491   0.19308674    20.606466    22.270557   0.31137267 
  375600   0.97111661   0.19384236    20.606468    22.256621   0.20068657 
  375700   0.99467844   0.19193181    20.595676    22.279253   0.44625506 
  375800    1.0128556   0.19211403    20.596357    22.307375    0.3370336 
  375900     1.016581   0.18923977    20.609208    22.322938   0.27757881 
  376000    1.0127351   0.18515937    20.605801    22.309684   0.50351076 
Loop time of 0.613828 on 4 procs (4 MPI x 1 OpenMP) for 2000 steps with 4000 atoms

Pair  time (%) = 0.16949 (27.612)
Bond  time (%) = 0.0624349 (10.1714)
Neigh time (%) = 0.0329704 (5.37127)
Comm  time (%) = 0.146118 (23.8043)
Outpt time (%) = 0.00103283 (0.16826)
Other time (%) = 0.201782 (32.8727)

Nlocal:    1000 ave 1016 max 967 min
Histogram: 1 0 0 0 0 0 0 1 0 2
Nghost:    1081.25 ave 1096 max 1058 min
Histogram: 1 0 0 0 0 1 0 0 0 2
Neighs:    3078 ave 3142 max 2946 min
Histogram: 1 0 0 0 0 0 0 0 2 1

Total # of neighbors = 12312
Ave neighs/atom = 3.078
Ave special neighs/atom = 5.925
Neighbor list builds = 41
Dangerous builds = 0
shell          head -n 2 Temp.txt | tail -n 1 >> Tempfile.txt
shell          head -n 2 Bond.txt | tail -n 1 >> Bondfile.txt
next           myTempStr
next           myBondStr
if "${myBond} <= 0" then "jump imdinput.txt nobonds"
jump           imdinput.txt loop2here

# specifies the run length in timesteps
run            2000
WARNING: Use special bonds = 0,1,1 with bond style fene (../bond_fene.cpp:188)
Memory usage per processor = 5.58102 Mbytes
Step Temp E_pair E_mol TotEng Press 
  376000    1.0127351   0.18515937    20.605801    22.309684   0.50351076 
  376100    0.9998705   0.18449754    20.598757    22.282686   0.53362381 
  376200   0.99914583   0.18681796    20.603902    22.289064   0.23788592 
  376300    1.0047239   0.19033529    20.605439    22.302483   0.36743419 
  376400   0.99095666   0.19461421    20.608377    22.289055   0.36599896 
  376500   0.99342713   0.19714224    20.600737    22.287647   0.45782256 
  376600    1.0090536   0.20020092    20.586017     22.29942   0.36992237 
  376700    1.0016864   0.19961388    20.593138    22.294906   0.19135951 
  376800   0.99320384   0.20073625    20.601909    22.292078   0.22528758 
  376900    1.0038376   0.19878434     20.59746    22.301624   0.30203618 
  377000    1.0181705   0.19789825    20.589619    22.314392   0.71076428 
  377100    1.0149619    0.1987022    20.592785     22.31355   0.28128782 
  377200    1.0113342   0.19810589    20.594295    22.309023   0.25966031 
  377300   0.99979015   0.19645308    20.619013    22.314776   0.15083561 
  377400     1.010917   0.19573462    20.587957    22.299688   0.29288047 
  377500   0.99455198   0.19538941    20.605821    22.292665   0.37323336 
  377600    1.0132973   0.19415906    20.589765     22.30349   0.18795098 
  377700    1.0014739   0.19441248    20.603071    22.299319   0.51311466 
  377800    1.0107188   0.19567622    20.597605     22.30898   0.27243791 
  377900    1.0052414   0.19949015    20.602914    22.309889   0.17474102 
  378000     1.001269   0.20034487    20.609365    22.311238   0.49620467 
Loop time of 0.620062 on 4 procs (4 MPI x 1 OpenMP) for 2000 steps with 4000 atoms

Pair  time (%) = 0.175422 (28.2911)
Bond  time (%) = 0.0620587 (10.0085)
Neigh time (%) = 0.0328674 (5.30066)
Comm  time (%) = 0.144123 (23.2433)
Outpt time (%) = 0.00105226 (0.169702)
Other time (%) = 0.204538 (32.9868)

Nlocal:    1000 ave 1009 max 987 min
Histogram: 1 0 0 0 1 0 0 0 0 2
Nghost:    1077.5 ave 1098 max 1047 min
Histogram: 1 0 0 0 0 1 0 0 1 1
Neighs:    3143 ave 3208 max 3111 min
Histogram: 2 0 1 0 0 0 0 0 0 1

Total # of neighbors = 12572
Ave neighs/atom = 3.143
Ave special neighs/atom = 5.925
Neighbor list builds = 41
Dangerous builds = 0
shell          head -n 2 Temp.txt | tail -n 1 >> Tempfile.txt
shell          head -n 2 Bond.txt | tail -n 1 >> Bondfile.txt
next           myTempStr
next           myBondStr
if "${myBond} <= 0" then "jump imdinput.txt nobonds"
jump           imdinput.txt loop2here

# specifies the run length in timesteps
run            2000
WARNING: Use special bonds = 0,1,1 with bond style fene (../bond_fene.cpp:188)
Memory usage per processor = 5.57955 Mbytes
Step Temp E_pair E_mol TotEng Press 
  378000     1.001269   0.20034487    20.609365    22.311238   0.49620467 
  378100    1.0019071   0.20181762    20.595945    22.300248   0.37988758 
  378200    1.0175145   0.20018536    20.593494    22.319569   0.32422474 
  378300    1.0127913   0.20176098    20.606167    22.326735   0.45225553 
  378400    1.0229345   0.20435003    20.580336    22.318704   0.45134945 
  378500    1.0071802   0.20570945    20.581315    22.297417    0.2519086 
  378600    1.0107073   0.20210787    20.593268    22.311058   0.30777424 
  378700    1.0002409   0.19522309    20.609206    22.304415   0.30966018 
  378800     1.013717   0.19229909    20.601139    22.313633   0.11622913 
  378900    1.0315114   0.19438278    20.582384    22.323647   0.48051796 
  379000    1.0135217   0.19933487    20.593094    22.312331   0.43035767 
  379100    1.0118993   0.20430243     20.58818    22.309952   0.39033472 
  379200   0.99282053   0.20512644    20.592223    22.286208   0.35386646 
  379300    1.0103251   0.19924883      20.5614    22.275757   0.44996313 
  379400    1.0003089      0.19275    20.584931    22.277769   0.18453524 
  379500   0.98814012   0.19142062    20.605085    22.278345  0.097462117 
  379600    1.0000007   0.18982519     20.58516    22.274611   0.43580265 
  379700    1.0036956   0.19210162    20.578522    22.275791   0.98039258 
  379800   0.99716522   0.19226726    20.606124    22.293765   0.14999348 
  379900     1.015344   0.18393091    20.599481    22.306047   0.23905025 
  380000    1.0215776   0.17910793    20.589239     22.30033  0.065067209 
Loop time of 0.622564 on 4 procs (4 MPI x 1 OpenMP) for 2000 steps with 4000 atoms

Pair  time (%) = 0.173003 (27.7888)
Bond  time (%) = 0.0615796 (9.89129)
Neigh time (%) = 0.0334622 (5.37489)
Comm  time (%) = 0.149034 (23.9388)
Outpt time (%) = 0.00104105 (0.16722)
Other time (%) = 0.204444 (32.839)

Nlocal:    1000 ave 1026 max 962 min
Histogram: 1 0 0 0 0 1 0 0 1 1
Nghost:    1060.5 ave 1089 max 1022 min
Histogram: 1 0 0 0 0 0 2 0 0 1
Neighs:    3059.5 ave 3227 max 2805 min
Histogram: 1 0 0 0 0 0 1 1 0 1

Total # of neighbors = 12238
Ave neighs/atom = 3.0595
Ave special neighs/atom = 5.925
Neighbor list builds = 41
Dangerous builds = 0
shell          head -n 2 Temp.txt | tail -n 1 >> Tempfile.txt
shell          head -n 2 Bond.txt | tail -n 1 >> Bondfile.txt
next           myTempStr
next           myBondStr
if "${myBond} <= 0" then "jump imdinput.txt nobonds"
jump           imdinput.txt loop2here

# specifies the run length in timesteps
run            2000
WARNING: Use special bonds = 0,1,1 with bond style fene (../bond_fene.cpp:188)
Memory usage per processor = 5.58321 Mbytes
Step Temp E_pair E_mol TotEng Press 
  380000    1.0215776   0.17910793    20.589239     22.30033  0.065067209 
  380100     1.022634   0.17924547    20.585489    22.298301   0.26624518 
  380200    1.0198508   0.17882456    20.597108    22.305326   0.33311472 
  380300    1.0128678   0.18523655    20.597469    22.301627    0.2482228 
  380400   0.99565646   0.19151289    20.587288    22.271912   0.40276657 
  380500   0.98397135   0.19465382    20.590647    22.260889   0.56645574 
  380600   0.99086939   0.19493347    20.591297    22.272163    0.4817171 
  380700   0.98874706   0.19346684    20.592347    22.268564   0.20106237 
  380800   0.98756413   0.19488362    20.589947    22.265806   0.40553495 
  380900    0.9945503   0.19510627    20.582278    22.268837   0.23824498 
  381000    1.0017423   0.19513022    20.594709    22.292077   0.29465872 
  381100    1.0128544   0.19680975    20.601262    22.316973    0.2917738 
  381200    1.0140645   0.19446419    20.599816    22.314996   0.20293383 
  381300    1.0129367   0.19526955     20.60222    22.316515   0.45524417 
  381400    1.0169353   0.19469316    20.589174    22.308889   0.45299835 
  381500     1.032699   0.19202736    20.594086    22.334775   0.29019681 
  381600    1.0225155   0.19120975    20.607578    22.332177   0.39627655 
  381700    1.0160802   0.19213513    20.608871    22.324745   0.16449486 
  381800    1.0233825   0.19008291    20.577107     22.30188   0.31282373 
  381900    1.0182779   0.18731563    20.591278    22.305629   0.45417986 
  382000    1.0088378   0.18688091    20.603391     22.30315   0.23714499 
Loop time of 0.638636 on 4 procs (4 MPI x 1 OpenMP) for 2000 steps with 4000 atoms

Pair  time (%) = 0.181784 (28.4644)
Bond  time (%) = 0.0677662 (10.6111)
Neigh time (%) = 0.0348536 (5.45751)
Comm  time (%) = 0.137998 (21.6082)
Outpt time (%) = 0.00148189 (0.23204)
Other time (%) = 0.214753 (33.6268)

Nlocal:    1000 ave 1033 max 972 min
Histogram: 1 1 0 0 0 0 1 0 0 1
Nghost:    1033.25 ave 1068 max 1011 min
Histogram: 1 0 1 1 0 0 0 0 0 1
Neighs:    3098.5 ave 3256 max 2960 min
Histogram: 1 1 0 0 0 0 0 1 0 1

Total # of neighbors = 12394
Ave neighs/atom = 3.0985
Ave special neighs/atom = 5.925
Neighbor list builds = 43
Dangerous builds = 0
shell          head -n 2 Temp.txt | tail -n 1 >> Tempfile.txt
shell          head -n 2 Bond.txt | tail -n 1 >> Bondfile.txt
next           myTempStr
next           myBondStr
if "${myBond} <= 0" then "jump imdinput.txt nobonds"
jump           imdinput.txt loop2here

# specifies the run length in timesteps
run            2000
WARNING: Use special bonds = 0,1,1 with bond style fene (../bond_fene.cpp:188)
Memory usage per processor = 5.58517 Mbytes
Step Temp E_pair E_mol TotEng Press 
  382000    1.0088378   0.18688091    20.603391     22.30315   0.23714499 
  382100    1.0136768    0.1896444    20.596657    22.306436   0.24074958 
  382200    1.0162569   0.18903597    20.601683    22.314723   0.40319259 
  382300    1.0216862   0.18532345    20.610759    22.328229   0.57827843 
  382400    1.0294079   0.18511917    20.620249    22.349094   0.39773229 
  382500    1.0407689   0.18630033    20.594602    22.341665   0.44991601 
  382600    1.0236387   0.18618452    20.598766    22.320025  0.083426869 
  382700    1.0333543   0.18954005    20.585782    22.324966   0.25215135 
  382800    1.0222486   0.18810868    20.597816    22.318915   0.63414894 
  382900    1.0041608   0.18969382     20.61076    22.306318    0.4250975 
  383000    1.0042038   0.18705755    20.601993    22.294979  -0.11747043 
  383100    1.0083344   0.18149716    20.588629     22.28225   0.58540253 
  383200    1.0116813    0.1796048     20.58971    22.286457   0.34432926 
  383300    1.0071705   0.18290948    20.582514    22.275802   0.30571566 
  383400    0.9890482   0.18969003    20.612153    22.285044   0.29659969 
  383500   0.98588394    0.1898943    20.607382    22.275733   0.49260142 
  383600    0.9870016   0.19037388    20.599761    22.270267   0.38819289 
  383700   0.98715439   0.19004431    20.601231    22.271637   0.30589455 
  383800    0.9934064   0.18872752    20.609102    22.287567   0.24364335 
  383900    1.0123365   0.18692797    20.591578    22.296631   0.41329309 
  384000    1.0083225   0.18414927    20.612292    22.308547   0.47158999 
Loop time of 0.619421 on 4 procs (4 MPI x 1 OpenMP) for 2000 steps with 4000 atoms

Pair  time (%) = 0.170108 (27.4624)
Bond  time (%) = 0.0612713 (9.8917)
Neigh time (%) = 0.033224 (5.36372)
Comm  time (%) = 0.148941 (24.0451)
Outpt time (%) = 0.00121123 (0.195542)
Other time (%) = 0.204666 (33.0415)

Nlocal:    1000 ave 1040 max 942 min
Histogram: 1 0 0 0 0 0 2 0 0 1
Nghost:    1067.75 ave 1112 max 1040 min
Histogram: 2 0 0 0 0 1 0 0 0 1
Neighs:    3068.5 ave 3223 max 2816 min
Histogram: 1 0 0 0 0 1 0 0 0 2

Total # of neighbors = 12274
Ave neighs/atom = 3.0685
Ave special neighs/atom = 5.925
Neighbor list builds = 41
Dangerous builds = 0
shell          head -n 2 Temp.txt | tail -n 1 >> Tempfile.txt
shell          head -n 2 Bond.txt | tail -n 1 >> Bondfile.txt
next           myTempStr
next           myBondStr
if "${myBond} <= 0" then "jump imdinput.txt nobonds"
jump           imdinput.txt loop2here

# specifies the run length in timesteps
run            2000
WARNING: Use special bonds = 0,1,1 with bond style fene (../bond_fene.cpp:188)
Memory usage per processor = 5.58663 Mbytes
Step Temp E_pair E_mol TotEng Press 
  384000    1.0083225   0.18414927    20.612292    22.308547   0.47158999 
  384100    1.0082028   0.18470248    20.602602    22.299231   0.42777749 
  384200    1.0130072   0.18650469    20.588115     22.29375   0.17579323 
  384300   0.99524606   0.18812422    20.611519    22.292139   0.31334877 
  384400    1.0026695   0.18650398    20.596671    22.286804   0.38649987 
  384500    0.9931885   0.18865124    20.611069    22.289131   0.28478924 
  384600    0.9965515   0.19221246    20.601383    22.288049    0.2695054 
  384700   0.98840188    0.1941113     20.60351    22.279854   0.38833742 
  384800   0.96551631   0.18717072    20.642443    22.277526   0.38049614 
  384900   0.99049099   0.18661637    20.617858    22.289839   0.29010548 
  385000    1.0146416   0.18454267    20.573886    22.280011   0.50688522 
  385100    0.9944912   0.18000538     20.61362     22.28499   0.41154371 
  385200    0.9995323   0.18272296    20.605686    22.287333    0.1481112 
  385300   0.98444952   0.18900631    20.600239     22.26555   0.25348158 
  385400    0.9985177   0.19126397    20.583749    22.272415   0.36295648 
  385500   0.99230606    0.1895963    20.601797    22.279481   0.36162343 
  385600    1.0041941    0.1877458    20.594906    22.288566   0.47482066 
  385700   0.98837264   0.18588779    20.598358    22.266435   0.24924465 
  385800   0.98996904     0.184757    20.605358    22.274697   0.46055821 
  385900    1.0042087   0.18698186    20.575693    22.268612   0.34742914 
  386000   0.97651362    0.1893994    20.598598    22.252402   0.15452666 
Loop time of 0.623633 on 4 procs (4 MPI x 1 OpenMP) for 2000 steps with 4000 atoms

Pair  time (%) = 0.168492 (27.0177)
Bond  time (%) = 0.0598772 (9.60136)
Neigh time (%) = 0.0338933 (5.43482)
Comm  time (%) = 0.157554 (25.2638)
Outpt time (%) = 0.00115037 (0.184463)
Other time (%) = 0.202667 (32.4978)

Nlocal:    1000 ave 1028 max 956 min
Histogram: 1 0 0 0 0 0 0 2 0 1
Nghost:    1086.75 ave 1098 max 1062 min
Histogram: 1 0 0 0 0 0 0 0 1 2
Neighs:    3086.75 ave 3213 max 2822 min
Histogram: 1 0 0 0 0 0 0 1 0 2

Total # of neighbors = 12347
Ave neighs/atom = 3.08675
Ave special neighs/atom = 5.925
Neighbor list builds = 41
Dangerous builds = 0
shell          head -n 2 Temp.txt | tail -n 1 >> Tempfile.txt
shell          head -n 2 Bond.txt | tail -n 1 >> Bondfile.txt
next           myTempStr
next           myBondStr
if "${myBond} <= 0" then "jump imdinput.txt nobonds"
jump           imdinput.txt loop2here

# specifies the run length in timesteps
run            2000
WARNING: Use special bonds = 0,1,1 with bond style fene (../bond_fene.cpp:188)
Memory usage per processor = 5.58419 Mbytes
Step Temp E_pair E_mol TotEng Press 
  386000   0.97651362    0.1893994    20.598598    22.252402   0.15452666 
  386100   0.96402977    0.1923416    20.602525     22.24055   0.24776104 
  386200    0.9896753   0.19755255    20.567413    22.249107   0.57495161 
  386300    0.9853959    0.1993374    20.573441    22.250502   0.27218106 
  386400   0.98170495   0.19854123     20.59239     22.26312   0.35029748 
  386500   0.97810529   0.19865941     20.59261    22.258061   0.49819441 
  386600   0.98152333   0.19470058    20.596816    22.263434   0.36311628 
  386700   0.97595633   0.18963755    20.613537    22.266743   0.12101136 
  386800   0.99431651   0.18889335    20.585725     22.26572   0.70821407 
  386900   0.99493587   0.19118926    20.576458    22.259678   0.14209636 
  387000   0.99384887   0.19290425    20.581453    22.264757   0.06164089 
  387100   0.99767507   0.19538243    20.578226    22.269747   0.44967458 
  387200   0.99702856   0.19450596    20.590863    22.280538   0.54473007 
  387300   0.98400751   0.19479101    20.603757    22.274191   0.22155034 
  387400   0.99342927   0.19621498    20.589374    22.275361   0.20052399 
  387500   0.99553634   0.19298043    20.596386    22.282298     0.500448 
  387600   0.99545181   0.19020356    20.609182     22.29219   0.17095527 
  387700    1.0037843   0.18542514    20.604624    22.295349    0.5355084 
  387800    1.0099333   0.18620525    20.609574      22.3103   0.30444268 
  387900    1.0123854   0.18929315    20.592616    22.300107   0.32242464 
  388000   0.99459216   0.19326934    20.597674    22.282459  0.035843453 
Loop time of 0.630716 on 4 procs (4 MPI x 1 OpenMP) for 2000 steps with 4000 atoms

Pair  time (%) = 0.172004 (27.2712)
Bond  time (%) = 0.0587923 (9.32152)
Neigh time (%) = 0.0342771 (5.43463)
Comm  time (%) = 0.160842 (25.5016)
Outpt time (%) = 0.00117821 (0.186804)
Other time (%) = 0.203622 (32.2843)

Nlocal:    1000 ave 1032 max 977 min
Histogram: 1 1 0 0 0 1 0 0 0 1
Nghost:    1098.75 ave 1138 max 1069 min
Histogram: 2 0 0 0 0 0 1 0 0 1
Neighs:    3083.25 ave 3467 max 2916 min
Histogram: 1 2 0 0 0 0 0 0 0 1

Total # of neighbors = 12333
Ave neighs/atom = 3.08325
Ave special neighs/atom = 5.925
Neighbor list builds = 41
Dangerous builds = 0
shell          head -n 2 Temp.txt | tail -n 1 >> Tempfile.txt
shell          head -n 2 Bond.txt | tail -n 1 >> Bondfile.txt
next           myTempStr
next           myBondStr
if "${myBond} <= 0" then "jump imdinput.txt nobonds"
jump           imdinput.txt loop2here

# specifies the run length in timesteps
run            2000
WARNING: Use special bonds = 0,1,1 with bond style fene (../bond_fene.cpp:188)
Memory usage per processor = 5.58492 Mbytes
Step Temp E_pair E_mol TotEng Press 
  388000   0.99459216   0.19326934    20.597674    22.282459  0.035843453 
  388100    1.0037364   0.19633644    20.591548    22.293113   0.39791346 
  388200   0.99750284   0.19617008    20.604377    22.296428   0.49015066 
  388300   0.98885302   0.19665738    20.600611    22.280177   0.34671069 
  388400   0.98566909   0.19699118     20.60218    22.277305   0.40060887 
  388500    1.0015154   0.19703133    20.594848    22.293777  0.099118581 
  388600    1.0006137    0.1978179    20.596416    22.294779   0.48486582 
  388700    1.0086848    0.1964985    20.575238    22.284386   0.47086198 
  388800   0.99999319    0.1961179    20.579127     22.27486   0.46588814 
  388900    0.9949487   0.19690907    20.594983    22.283942  0.087755969 
  389000   0.98798147   0.19472797     20.59659    22.272919   0.13831168 
  389100   0.99396087   0.19263055    20.588207    22.271406   0.35156467 
  389200    1.0004234   0.19496279    20.587116    22.282338   0.35772909 
  389300   0.98581974   0.19779123    20.592739     22.26889   0.43075476 
  389400   0.98713893   0.19897362    20.595667    22.274979   0.11908042 
  389500   0.99508667   0.19589697    20.597615    22.285768   0.34080736 
  389600     1.008583   0.19225623    20.595512    22.300264   0.48057714 
  389700     1.000801   0.19003585    20.607515    22.298377    0.6242703 
  389800     1.006632   0.19357947    20.602911    22.306061   0.49571035 
  389900    1.0073728   0.19934398    20.590451    22.300477   0.23129996 
  390000    1.0051464    0.2007318     20.60515    22.313225   0.32626314 
Loop time of 0.632732 on 4 procs (4 MPI x 1 OpenMP) for 2000 steps with 4000 atoms

Pair  time (%) = 0.17405 (27.5076)
Bond  time (%) = 0.0610595 (9.65013)
Neigh time (%) = 0.0334551 (5.2874)
Comm  time (%) = 0.159434 (25.1977)
Outpt time (%) = 0.0011825 (0.186887)
Other time (%) = 0.203552 (32.1703)

Nlocal:    1000 ave 1022 max 965 min
Histogram: 1 0 0 0 0 0 0 2 0 1
Nghost:    1092 ave 1142 max 1034 min
Histogram: 1 0 0 0 1 0 1 0 0 1
Neighs:    3075 ave 3196 max 2947 min
Histogram: 1 0 0 1 0 0 1 0 0 1

Total # of neighbors = 12300
Ave neighs/atom = 3.075
Ave special neighs/atom = 5.925
Neighbor list builds = 40
Dangerous builds = 0
shell          head -n 2 Temp.txt | tail -n 1 >> Tempfile.txt
shell          head -n 2 Bond.txt | tail -n 1 >> Bondfile.txt
next           myTempStr
next           myBondStr
if "${myBond} <= 0" then "jump imdinput.txt nobonds"
jump           imdinput.txt loop2here

# specifies the run length in timesteps
run            2000
WARNING: Use special bonds = 0,1,1 with bond style fene (../bond_fene.cpp:188)
Memory usage per processor = 5.5815 Mbytes
Step Temp E_pair E_mol TotEng Press 
  390000    1.0051464    0.2007318     20.60515    22.313225   0.32626314 
  390100    1.0210934    0.1962727    20.602239    22.329769   0.52750489 
  390200    1.0183372   0.19222527     20.61419    22.333539   0.26401461 
  390300    1.0037381   0.19365138    20.623193    22.322075   0.22866495 
  390400    1.0080553   0.19823953    20.611334    22.321278   0.34375055 
  390500     1.007834    0.2000651    20.601347    22.312786   0.55638623 
  390600    1.0027573   0.19665735    20.615791    22.316208   0.25440507 
  390700    1.0102328   0.19406487    20.591795    22.300831   0.36448228 
  390800    1.0124558   0.19687064     20.60491    22.320085   0.43327767 
  390900   0.99444834   0.20056966    20.602263    22.294132   0.27182712 
  391000   0.99581402    0.2001234    20.599592    22.293063   0.32883505 
  391100    1.0055941   0.19661984    20.580372    22.285006   0.45611692 
  391200   0.99965453   0.19692448    20.603952    22.299984   0.50805112 
  391300    1.0023604   0.19332551    20.602789    22.299279   0.41716797 
  391400    1.0313809   0.19163903     20.58572    22.324043   0.21821228 
  391500    1.0208856   0.19081569     20.60392    22.325681   0.58319727 
  391600    1.0027563   0.19209813    20.610038    22.305895   0.34519292 
  391700     1.011338    0.1936712    20.600075    22.310374   0.16833064 
  391800    1.0005138   0.19565108    20.615325    22.311371   0.41056084 
  391900    1.0063048   0.19895012    20.598499    22.306529   0.16571415 
  392000   0.99524104   0.19875934    20.600769    22.292016   0.69813865 
Loop time of 0.627725 on 4 procs (4 MPI x 1 OpenMP) for 2000 steps with 4000 atoms

Pair  time (%) = 0.173169 (27.5867)
Bond  time (%) = 0.0632497 (10.076)
Neigh time (%) = 0.0335262 (5.34091)
Comm  time (%) = 0.149169 (23.7634)
Outpt time (%) = 0.00126064 (0.200826)
Other time (%) = 0.207351 (33.0321)

Nlocal:    1000 ave 1030 max 957 min
Histogram: 1 0 0 0 1 0 0 0 1 1
Nghost:    1066.5 ave 1105 max 1038 min
Histogram: 1 0 1 0 1 0 0 0 0 1
Neighs:    3091.75 ave 3223 max 2887 min
Histogram: 1 0 0 0 0 1 0 0 1 1

Total # of neighbors = 12367
Ave neighs/atom = 3.09175
Ave special neighs/atom = 5.925
Neighbor list builds = 41
Dangerous builds = 0
shell          head -n 2 Temp.txt | tail -n 1 >> Tempfile.txt
shell          head -n 2 Bond.txt | tail -n 1 >> Bondfile.txt
next           myTempStr
next           myBondStr
if "${myBond} <= 0" then "jump imdinput.txt nobonds"
jump           imdinput.txt loop2here

# specifies the run length in timesteps
run            2000
WARNING: Use special bonds = 0,1,1 with bond style fene (../bond_fene.cpp:188)
Memory usage per processor = 5.58492 Mbytes
Step Temp E_pair E_mol TotEng Press 
  392000   0.99524104   0.19875934    20.600769    22.292016   0.69813865 
  392100   0.98451765   0.19548873    20.595162    22.267058   0.54896108 
  392200   0.98543675   0.19404272    20.587716    22.259544   0.26853101 
  392300   0.98379713    0.1957959    20.587611    22.258734   0.18864245 
  392400    0.9781291   0.19681169    20.596844    22.260482   0.22093483 
  392500   0.99203567   0.19727667    20.585103    22.270061   0.52535456 
  392600   0.99437665   0.19777781    20.584771     22.27374   0.41829591 
  392700   0.98138961   0.19889225    20.600401     22.27101   0.26139119 
  392800   0.99797729   0.19775524    20.573076    22.267423   0.38479895 
  392900   0.98531953   0.19591144    20.589709    22.263231   0.31259712 
  393000   0.99679456   0.19648138    20.580349    22.271649   0.27596797 
  393100   0.98915151   0.19597815    20.601021    22.280356   0.40157167 
  393200    1.0021147   0.19368117    20.572169    22.268647   0.33234261 
  393300   0.99995248   0.19272755    20.596605    22.288886   0.17243976 
  393400   0.99263605   0.19323842    20.595818    22.277638   0.31682076 
  393500   0.98966361   0.19198703    20.574408    22.250519  0.035856978 
  393600    1.0034162   0.19123318    20.565521    22.261502   0.38640991 
  393700   0.97987582   0.19482046    20.603311    22.267577   0.43862653 
  393800   0.97453595   0.19864325     20.59786    22.257941   0.37468176 
  393900   0.98069276   0.19821807    20.587119    22.256009   0.37747537 
  394000   0.98445659   0.19583081    20.590196    22.262342   0.40771789 
Loop time of 0.632848 on 4 procs (4 MPI x 1 OpenMP) for 2000 steps with 4000 atoms

Pair  time (%) = 0.174803 (27.6216)
Bond  time (%) = 0.0634683 (10.029)
Neigh time (%) = 0.0365347 (5.77306)
Comm  time (%) = 0.148565 (23.4756)
Outpt time (%) = 0.00132573 (0.209486)
Other time (%) = 0.208151 (32.8912)

Nlocal:    1000 ave 1023 max 976 min
Histogram: 1 0 0 1 0 0 0 1 0 1
Nghost:    1062 ave 1084 max 1052 min
Histogram: 1 2 0 0 0 0 0 0 0 1
Neighs:    3061.75 ave 3194 max 2857 min
Histogram: 1 0 0 0 0 1 0 0 1 1

Total # of neighbors = 12247
Ave neighs/atom = 3.06175
Ave special neighs/atom = 5.925
Neighbor list builds = 44
Dangerous builds = 0
shell          head -n 2 Temp.txt | tail -n 1 >> Tempfile.txt
shell          head -n 2 Bond.txt | tail -n 1 >> Bondfile.txt
next           myTempStr
next           myBondStr
if "${myBond} <= 0" then "jump imdinput.txt nobonds"
jump           imdinput.txt loop2here

# specifies the run length in timesteps
run            2000
WARNING: Use special bonds = 0,1,1 with bond style fene (../bond_fene.cpp:188)
Memory usage per processor = 5.58273 Mbytes
Step Temp E_pair E_mol TotEng Press 
  394000   0.98445659   0.19583081    20.590196    22.262342   0.40771789 
  394100   0.98020577   0.18820206     20.59712    22.255264   0.26208333 
  394200   0.99785254   0.18621608    20.599971    22.282591   0.37912873 
  394300     1.006011   0.18698181     20.59527    22.290891   0.29838808 
  394400    1.0009646   0.18790872    20.607005    22.295985   0.31177061 
  394500    1.0047977   0.18712477    20.583041    22.276986  0.081826698 
  394600   0.98749838    0.1862642    20.608261    22.275402   0.37637319 
  394700   0.99384342   0.18425783    20.593962    22.268612   0.27993007 
  394800   0.99500505   0.18615187     20.59748    22.275766   0.37197238 
  394900   0.99090922   0.18907462    20.595643     22.27071   0.20630531 
  395000    1.0034307   0.18755928    20.594808    22.287137   0.27101088 
  395100    1.0005591   0.18566381    20.605036    22.291163   0.24287603 
  395200    1.0130079   0.18187741    20.620074    22.321084   0.27734723 
  395300    1.0194824   0.18052033    20.604634    22.313996   0.32977376 
  395400     1.007365   0.17922661    20.602017    22.291913   0.36402938 
  395500     1.004229   0.18021946    20.607267    22.293453   0.48345457 
  395600   0.99664284   0.18213995     20.61019    22.286921    0.1998322 
  395700   0.98069059   0.18356989    20.609961    22.264199   0.34732989 
  395800   0.97901215   0.18654481    20.604487    22.259183   0.22077196 
  395900   0.97841015   0.18999151    20.597584    22.254824   0.45875398 
  396000   0.99734555   0.19465016    20.590009    22.280304   0.45437555 
Loop time of 0.624882 on 4 procs (4 MPI x 1 OpenMP) for 2000 steps with 4000 atoms

Pair  time (%) = 0.171576 (27.4574)
Bond  time (%) = 0.0624152 (9.98832)
Neigh time (%) = 0.0347979 (5.56872)
Comm  time (%) = 0.14975 (23.9646)
Outpt time (%) = 0.00121731 (0.194806)
Other time (%) = 0.205125 (32.8262)

Nlocal:    1000 ave 1013 max 985 min
Histogram: 1 0 0 1 0 0 0 1 0 1
Nghost:    1058.5 ave 1092 max 1013 min
Histogram: 1 0 0 0 0 0 2 0 0 1
Neighs:    3119.25 ave 3216 max 2962 min
Histogram: 1 0 0 0 0 0 0 2 0 1

Total # of neighbors = 12477
Ave neighs/atom = 3.11925
Ave special neighs/atom = 5.925
Neighbor list builds = 42
Dangerous builds = 0
shell          head -n 2 Temp.txt | tail -n 1 >> Tempfile.txt
shell          head -n 2 Bond.txt | tail -n 1 >> Bondfile.txt
next           myTempStr
next           myBondStr
if "${myBond} <= 0" then "jump imdinput.txt nobonds"
jump           imdinput.txt loop2here

# specifies the run length in timesteps
run            2000
WARNING: Use special bonds = 0,1,1 with bond style fene (../bond_fene.cpp:188)
Memory usage per processor = 5.58077 Mbytes
Step Temp E_pair E_mol TotEng Press 
  396000   0.99734555   0.19465016    20.590009    22.280304   0.45437555 
  396100   0.98506208   0.19552829    20.608045    22.280797   0.48321398 
  396200   0.98213889   0.19684775    20.611001    22.280689   0.33975256 
  396300    1.0067564   0.19388947    20.584989    22.288635   0.32290979 
  396400    0.9942478   0.19153649    20.608001    22.290536   0.23689419 
  396500    1.0058162   0.18904879    20.602974     22.30037   0.39573064 
  396600    1.0123142    0.1877914    20.593533    22.299416   0.12235419 
  396700    1.0091851   0.18340867    20.584948    22.281756   0.44524185 
  396800    1.0166191   0.17684813    20.581094     22.28249   0.20954468 
  396900    1.0169491   0.17257983    20.593593    22.291215   0.47258926 
  397000    1.0047601   0.17392296    20.599021    22.279708   0.53745855 
  397100    1.0005239   0.17611492    20.601047    22.277573   0.23180288 
  397200    1.0040649   0.17795374    20.594031    22.277705   0.33918117 
  397300    1.0131286   0.18042528    20.587114    22.286853   0.41859297 
  397400    1.0056599   0.18323515    20.586859    22.278207   0.36247407 
  397500      1.01706   0.18646516    20.571511    22.283185   0.44002815 
  397600    1.0002388   0.19027178    20.602828    22.293083   0.09680912 
  397700   0.99332729   0.19232013    20.595339    22.277277   0.32039877 
  397800     1.008481   0.19000412    20.580549    22.282896   0.46750935 
  397900    1.0049099   0.18696268    20.594926    22.288877   0.42539776 
  398000    1.0024015   0.18806033    20.608466    22.299753   0.46173401 
Loop time of 0.633199 on 4 procs (4 MPI x 1 OpenMP) for 2000 steps with 4000 atoms

Pair  time (%) = 0.171653 (27.1089)
Bond  time (%) = 0.0617939 (9.75899)
Neigh time (%) = 0.0357336 (5.64335)
Comm  time (%) = 0.156099 (24.6525)
Outpt time (%) = 0.00116402 (0.183831)
Other time (%) = 0.206755 (32.6525)

Nlocal:    1000 ave 1025 max 974 min
Histogram: 1 0 0 0 1 1 0 0 0 1
Nghost:    1068 ave 1110 max 1030 min
Histogram: 1 0 0 1 0 1 0 0 0 1
Neighs:    3050 ave 3277 max 2929 min
Histogram: 2 0 0 1 0 0 0 0 0 1

Total # of neighbors = 12200
Ave neighs/atom = 3.05
Ave special neighs/atom = 5.925
Neighbor list builds = 43
Dangerous builds = 0
shell          head -n 2 Temp.txt | tail -n 1 >> Tempfile.txt
shell          head -n 2 Bond.txt | tail -n 1 >> Bondfile.txt
next           myTempStr
next           myBondStr
if "${myBond} <= 0" then "jump imdinput.txt nobonds"
jump           imdinput.txt loop2here

# specifies the run length in timesteps
run            2000
WARNING: Use special bonds = 0,1,1 with bond style fene (../bond_fene.cpp:188)
Memory usage per processor = 5.58321 Mbytes
Step Temp E_pair E_mol TotEng Press 
  398000    1.0024015   0.18806033    20.608466    22.299753   0.46173401 
  398100    1.0121429   0.19204429    20.599913    22.309792   0.24203773 
  398200    1.0091802   0.19494987    20.594336    22.302677   0.46976303 
  398300    1.0114972   0.19518308    20.594746    22.306795    0.2091403 
  398400    1.0058259   0.19513522    20.611937    22.315434     0.325388 
  398500    1.0182417   0.19121991     20.59524    22.313441    0.3961693 
  398600     1.025467    0.1881837    20.576144    22.302144    0.3386637 
  398700    1.0122494   0.18923655     20.60015    22.307381    0.4070562 
  398800   0.99991253   0.18927017    20.591824    22.280588   0.38763001 
  398900    1.0097583   0.18859706    20.588127    22.290983   0.30009579 
  399000    1.0146671    0.1853629    20.568659    22.275642   0.49438052 
  399100   0.98550211   0.18327736    20.595899     22.25706   0.12776511 
  399200   0.98452603   0.18515617    20.600393    22.261969   0.57384357 
  399300   0.98889396   0.19125535    20.595882    22.270107   0.41451087 
  399400   0.99080734   0.20033052    20.588419    22.274589   0.20470144 
  399500    1.0020211   0.19982955    20.580847    22.283332   0.38042589 
  399600   0.98653326   0.19692536    20.586849    22.263205   0.24549261 
  399700   0.99700736   0.19486248    20.588851     22.27885   0.19411786 
  399800    1.0019418   0.19156601    20.584769    22.278872   0.45180745 
  399900    1.0024683   0.19010675    20.592195    22.285628    0.4988879 
  400000    1.0027513   0.18965866    20.592529    22.285939   0.10005393 
Loop time of 0.628695 on 4 procs (4 MPI x 1 OpenMP) for 2000 steps with 4000 atoms

Pair  time (%) = 0.171557 (27.2878)
Bond  time (%) = 0.0624083 (9.92664)
Neigh time (%) = 0.0344716 (5.48304)
Comm  time (%) = 0.154904 (24.639)
Outpt time (%) = 0.00114411 (0.181982)
Other time (%) = 0.20421 (32.4816)

Nlocal:    1000 ave 1028 max 971 min
Histogram: 1 0 0 0 1 1 0 0 0 1
Nghost:    1052.75 ave 1093 max 997 min
Histogram: 1 0 0 0 1 0 0 0 1 1
Neighs:    3062.75 ave 3128 max 2945 min
Histogram: 1 0 0 0 0 0 1 0 0 2

Total # of neighbors = 12251
Ave neighs/atom = 3.06275
Ave special neighs/atom = 5.925
Neighbor list builds = 42
Dangerous builds = 0
shell          head -n 2 Temp.txt | tail -n 1 >> Tempfile.txt
shell          head -n 2 Bond.txt | tail -n 1 >> Bondfile.txt
next           myTempStr
next           myBondStr
if "${myBond} <= 0" then "jump imdinput.txt nobonds"
jump           imdinput.txt loop2here

# specifies the run length in timesteps
run            2000
WARNING: Use special bonds = 0,1,1 with bond style fene (../bond_fene.cpp:188)
Memory usage per processor = 5.58395 Mbytes
Step Temp E_pair E_mol TotEng Press 
  400000    1.0027513   0.18965866    20.592529    22.285939   0.10005393 
  400100    1.0061173   0.18970798    20.598058    22.296564   0.12560931 
  400200    1.0022872    0.1917094    20.598098    22.292863   0.26746033 
  400300   0.99070461   0.18921511    20.616063    22.290964   0.22553331 
  400400   0.99453884   0.18697612    20.602097    22.280509   0.40554001 
  400500    0.9893405   0.18399023    20.598991    22.266621   0.42717146 
  400600   0.98211944   0.18509523    20.603859    22.261766   0.43102579 
  400700    1.0024362   0.18534328    20.579806    22.268428   0.24343895 
  400800    1.0009653   0.18414731    20.581698    22.266918   0.50949938 
  400900   0.98550614   0.18340211    20.591126    22.252417    0.3621868 
  401000   0.99397891   0.17966842    20.587128    22.257392   0.13041426 
  401100   0.99503665   0.17521153     20.59921    22.266603   0.29187385 
  401200   0.99443499   0.17367027    20.606238    22.271187   0.36210954 
  401300   0.99785741   0.17490174    20.589436     22.26075   0.27347233 
  401400    1.0091899   0.18105939    20.583178    22.277643   0.47958295 
  401500    0.9830481   0.18302098    20.603086     22.26031   0.40160936 
  401600   0.98951636   0.18567046    20.607009    22.276583   0.37330384 
  401700    1.0098427   0.18862233    20.594839    22.297847   0.28051351 
  401800      1.00717   0.19018508    20.596396    22.296959   0.45477836 
  401900     1.006553   0.19642008    20.590636    22.296508   0.36407443 
  402000   0.99026967   0.19670538    20.612299    22.294038   0.35855525 
Loop time of 0.625766 on 4 procs (4 MPI x 1 OpenMP) for 2000 steps with 4000 atoms

Pair  time (%) = 0.1711 (27.3425)
Bond  time (%) = 0.0630978 (10.0833)
Neigh time (%) = 0.0335721 (5.36497)
Comm  time (%) = 0.150612 (24.0684)
Outpt time (%) = 0.00117034 (0.187025)
Other time (%) = 0.206213 (32.9538)

Nlocal:    1000 ave 1034 max 941 min
Histogram: 1 0 0 0 0 0 1 0 0 2
Nghost:    1073.25 ave 1098 max 1046 min
Histogram: 1 0 0 1 0 0 0 1 0 1
Neighs:    3076.25 ave 3268 max 2699 min
Histogram: 1 0 0 0 0 0 0 0 2 1

Total # of neighbors = 12305
Ave neighs/atom = 3.07625
Ave special neighs/atom = 5.925
Neighbor list builds = 41
Dangerous builds = 0
shell          head -n 2 Temp.txt | tail -n 1 >> Tempfile.txt
shell          head -n 2 Bond.txt | tail -n 1 >> Bondfile.txt
next           myTempStr
next           myBondStr
if "${myBond} <= 0" then "jump imdinput.txt nobonds"
jump           imdinput.txt loop2here

# specifies the run length in timesteps
run            2000
WARNING: Use special bonds = 0,1,1 with bond style fene (../bond_fene.cpp:188)
Memory usage per processor = 5.58419 Mbytes
Step Temp E_pair E_mol TotEng Press 
  402000   0.99026967   0.19670538    20.612299    22.294038   0.35855525 
  402100   0.99180294   0.19484075    20.602468    22.284642   0.48958031 
  402200    1.0048697   0.19435599    20.585753    22.287036   0.37829933 
  402300   0.99517419   0.19390163    20.594687    22.280977   0.51319801 
  402400    1.0076464   0.19174667    20.585505    22.288343   0.39084367 
  402500   0.99704949   0.18968853    20.606696    22.291584  0.020041598 
  402600    1.0009951   0.18638324    20.597129    22.284629   0.50538035 
  402700   0.99792489   0.18831826    20.604667    22.289498   0.24628241 
  402800    1.0213472   0.18911795    20.576632    22.297387   0.34854147 
  402900   0.99619891   0.18821237     20.61104    22.293177   0.41637667 
  403000   0.99793263   0.18770201    20.598306    22.282532   0.48747496 
  403100    1.0087477   0.18529139    20.600786    22.298821   0.52130567 
  403200    1.0062845   0.18760466    20.589193    22.285847   0.14698436 
  403300    1.0014906   0.19290165      20.6154    22.310162   0.25877487 
  403400    1.0082634   0.19828724    20.592157    22.302461   0.41421454 
  403500    1.0059744   0.20224054    20.597172    22.307996   0.31520875 
  403600    1.0010798   0.20197134    20.600772    22.303987     0.319754 
  403700    1.0009502   0.19699258     20.60409    22.302132   0.51723395 
  403800    1.0007756   0.19372062    20.610158    22.304666   0.27557899 
  403900    1.0136996   0.19184477    20.585004    22.297018   0.35041436 
  404000   0.99642865   0.19310045    20.587231      22.2746   0.46686812 
Loop time of 0.631426 on 4 procs (4 MPI x 1 OpenMP) for 2000 steps with 4000 atoms

Pair  time (%) = 0.17208 (27.2525)
Bond  time (%) = 0.0624362 (9.88813)
Neigh time (%) = 0.0347102 (5.49711)
Comm  time (%) = 0.155971 (24.7014)
Outpt time (%) = 0.00113726 (0.180109)
Other time (%) = 0.205092 (32.4807)

Nlocal:    1000 ave 1029 max 957 min
Histogram: 1 0 0 0 0 1 0 0 1 1
Nghost:    1081.5 ave 1095 max 1069 min
Histogram: 1 0 1 0 0 0 1 0 0 1
Neighs:    3106.5 ave 3265 max 2887 min
Histogram: 1 0 0 0 0 0 2 0 0 1

Total # of neighbors = 12426
Ave neighs/atom = 3.1065
Ave special neighs/atom = 5.925
Neighbor list builds = 42
Dangerous builds = 0
shell          head -n 2 Temp.txt | tail -n 1 >> Tempfile.txt
shell          head -n 2 Bond.txt | tail -n 1 >> Bondfile.txt
next           myTempStr
next           myBondStr
if "${myBond} <= 0" then "jump imdinput.txt nobonds"
jump           imdinput.txt loop2here

# specifies the run length in timesteps
run            2000
WARNING: Use special bonds = 0,1,1 with bond style fene (../bond_fene.cpp:188)
Memory usage per processor = 5.58346 Mbytes
Step Temp E_pair E_mol TotEng Press 
  404000   0.99642865   0.19310045    20.587231      22.2746   0.46686812 
  404100    0.9947232   0.19513591    20.582691    22.269538   0.30854953 
  404200    1.0042292   0.19421277    20.575567    22.275747   0.43562546 
  404300   0.99959018   0.19308815    20.594174    22.286273   0.42996513 
  404400    1.0042776   0.18992329    20.588284    22.284247   0.35150768 
  404500   0.99836159   0.18957605    20.588512    22.275256   0.39041444 
  404600    1.0192112   0.18791635    20.572956    22.289307   0.56945292 
  404700    1.0067558   0.18989716    20.587699    22.287352   0.39538741 
  404800    1.0020539   0.19123017    20.577243    22.271178   0.24645274 
  404900   0.98929443   0.19184988    20.595021    22.270441  0.093732841 
  405000    0.9866052   0.19089914    20.594392    22.264829   0.45611612 
  405100   0.98948973    0.1908086    20.575827    22.250499   0.26628971 
  405200   0.97958459   0.19068298    20.591519    22.251212   0.65187685 
  405300   0.97855516   0.19263259    20.588803    22.248901   0.29622042 
  405400   0.99638291   0.19349987    20.567275    22.254975   0.36587095 
  405500   0.98280259   0.19234141    20.579203     22.24538   0.27526741 
  405600   0.97875569   0.19038069    20.586763     22.24491   0.27511321 
  405700    0.9918805    0.1909084     20.58206    22.260417   0.36009603 
  405800   0.99099356   0.19067831    20.593102    22.269899   0.32935273 
  405900   0.99440936   0.18960334    20.594281    22.275126   0.53603962 
  406000   0.99836762    0.1860624    20.598275    22.281514   0.21884293 
Loop time of 0.632146 on 4 procs (4 MPI x 1 OpenMP) for 2000 steps with 4000 atoms

Pair  time (%) = 0.175389 (27.745)
Bond  time (%) = 0.0632489 (10.0054)
Neigh time (%) = 0.0341281 (5.39876)
Comm  time (%) = 0.151255 (23.9271)
Outpt time (%) = 0.00117612 (0.186052)
Other time (%) = 0.206949 (32.7376)

Nlocal:    1000 ave 1023 max 955 min
Histogram: 1 0 0 0 0 0 0 1 1 1
Nghost:    1050 ave 1058 max 1042 min
Histogram: 2 0 0 0 0 0 0 0 0 2
Neighs:    3120 ave 3230 max 2851 min
Histogram: 1 0 0 0 0 0 0 0 1 2

Total # of neighbors = 12480
Ave neighs/atom = 3.12
Ave special neighs/atom = 5.925
Neighbor list builds = 41
Dangerous builds = 0
shell          head -n 2 Temp.txt | tail -n 1 >> Tempfile.txt
shell          head -n 2 Bond.txt | tail -n 1 >> Bondfile.txt
next           myTempStr
next           myBondStr
if "${myBond} <= 0" then "jump imdinput.txt nobonds"
jump           imdinput.txt loop2here

# specifies the run length in timesteps
run            2000
WARNING: Use special bonds = 0,1,1 with bond style fene (../bond_fene.cpp:188)
Memory usage per processor = 5.58321 Mbytes
Step Temp E_pair E_mol TotEng Press 
  406000   0.99836762    0.1860624    20.598275    22.281514   0.21884293 
  406100   0.99093163   0.18905044    20.594925    22.270001   0.21149608 
  406200   0.99512714   0.19136367    20.595557    22.279238   0.13264256 
  406300   0.99137832   0.18839442    20.607637    22.282727   0.53777516 
  406400   0.98967595   0.18926738    20.606908    22.280318   0.27878377 
  406500    0.9875944   0.19312852    20.611011    22.285161   0.58439471 
  406600   0.99187161   0.19979437    20.610379    22.297609    0.1592679 
  406700   0.98454896    0.2024824    20.618726    22.297663   0.70408527 
  406800   0.99350406   0.20226545    20.593433    22.285582    0.4289508 
  406900   0.99328815   0.20278612    20.599062    22.291408   0.23704455 
  407000   0.98720733   0.20355252    20.604631    22.288624   0.16240645 
  407100    1.0096273    0.2069698    20.590482    22.311514   0.47363452 
  407200   0.98211801   0.20439043    20.599745    22.276944   0.28063398 
  407300   0.98580556   0.20352107    20.600581    22.282441   0.26316424 
  407400   0.99639678    0.2022607    20.605523    22.302005   0.30639501 
  407500    1.0089832    0.2037021     20.59978    22.316579   0.55020478 
  407600    1.0114859   0.20486449    20.595052    22.316766   0.43018642 
  407700    1.0176392   0.20700765    20.596248    22.329333   0.33744591 
  407800    1.0070728   0.20662141    20.605417     22.32227   0.43639884 
  407900    1.0109235   0.20675999    20.589297    22.312063 -0.010003737 
  408000    1.0104467    0.2045115    20.589786    22.309589   0.43535363 
Loop time of 0.634165 on 4 procs (4 MPI x 1 OpenMP) for 2000 steps with 4000 atoms

Pair  time (%) = 0.177175 (27.9383)
Bond  time (%) = 0.0630668 (9.94487)
Neigh time (%) = 0.0342743 (5.40463)
Comm  time (%) = 0.152055 (23.9772)
Outpt time (%) = 0.00116438 (0.183608)
Other time (%) = 0.20643 (32.5514)

Nlocal:    1000 ave 1049 max 956 min
Histogram: 1 0 0 1 1 0 0 0 0 1
Nghost:    1061.75 ave 1104 max 1013 min
Histogram: 1 0 0 0 1 0 0 1 0 1
Neighs:    3160.5 ave 3367 max 2957 min
Histogram: 1 0 0 1 0 0 1 0 0 1

Total # of neighbors = 12642
Ave neighs/atom = 3.1605
Ave special neighs/atom = 5.925
Neighbor list builds = 41
Dangerous builds = 0
shell          head -n 2 Temp.txt | tail -n 1 >> Tempfile.txt
shell          head -n 2 Bond.txt | tail -n 1 >> Bondfile.txt
next           myTempStr
next           myBondStr
if "${myBond} <= 0" then "jump imdinput.txt nobonds"
jump           imdinput.txt loop2here

# specifies the run length in timesteps
run            2000
WARNING: Use special bonds = 0,1,1 with bond style fene (../bond_fene.cpp:188)
Memory usage per processor = 5.58858 Mbytes
Step Temp E_pair E_mol TotEng Press 
  408000    1.0104467    0.2045115    20.589786    22.309589   0.43535363 
  408100    1.0084423   0.20488519    20.597611    22.314781    0.4366926 
  408200    1.0194808   0.20442762     20.59179    22.325056   0.37109286 
  408300    1.0038751   0.20270786    20.588231    22.296375     0.315335 
  408400    1.0088411   0.20256001    20.599276    22.314719   0.37795007 
  408500   0.99464866   0.20819834    20.602987    22.302786   0.51487136 
  408600    0.9907213   0.20795585    20.610604     22.30427   0.24832133 
  408700    1.0198415   0.20348166    20.577878     22.31074   0.48417774 
  408800     1.016289   0.20225584    20.593915    22.320224   0.11460616 
  408900    1.0074114   0.20511965    20.592844    22.308703   0.33027717 
  409000    1.0063534   0.20511852    20.590041    22.304312   0.42151808 
  409100    1.0047642   0.20324643    20.601957    22.311973    0.3274149 
  409200    1.0022043   0.19800237    20.613901    22.314834   0.31563078 
  409300    1.0131127   0.19529636    20.592132    22.306718   0.25929265 
  409400    1.0119988   0.19428068    20.600563    22.312463   0.40695742 
  409500    1.0048932   0.19843409    20.607027    22.312424    0.1678133 
  409600    1.0027471   0.19817762    20.611501    22.313423   0.54486433 
  409700   0.99989798   0.19611108    20.620236    22.315819   0.41916831 
  409800    1.0079198    0.1972565     20.59466    22.303418   0.35973668 
  409900   0.97927784   0.19605703    20.622361    22.286968   0.15243118 
  410000    1.0014778    0.1970427     20.60147    22.300354   0.46723643 
Loop time of 0.620913 on 4 procs (4 MPI x 1 OpenMP) for 2000 steps with 4000 atoms

Pair  time (%) = 0.173534 (27.9482)
Bond  time (%) = 0.0608602 (9.80173)
Neigh time (%) = 0.033906 (5.46068)
Comm  time (%) = 0.14821 (23.8697)
Outpt time (%) = 0.00111353 (0.179338)
Other time (%) = 0.203289 (32.7403)

Nlocal:    1000 ave 1042 max 959 min
Histogram: 1 0 1 0 0 0 1 0 0 1
Nghost:    1067.75 ave 1104 max 1045 min
Histogram: 2 0 0 0 1 0 0 0 0 1
Neighs:    3137 ave 3406 max 2974 min
Histogram: 2 0 0 0 1 0 0 0 0 1

Total # of neighbors = 12548
Ave neighs/atom = 3.137
Ave special neighs/atom = 5.925
Neighbor list builds = 42
Dangerous builds = 0
shell          head -n 2 Temp.txt | tail -n 1 >> Tempfile.txt
shell          head -n 2 Bond.txt | tail -n 1 >> Bondfile.txt
next           myTempStr
next           myBondStr
if "${myBond} <= 0" then "jump imdinput.txt nobonds"
jump           imdinput.txt loop2here

# specifies the run length in timesteps
run            2000
WARNING: Use special bonds = 0,1,1 with bond style fene (../bond_fene.cpp:188)
Memory usage per processor = 5.58761 Mbytes
Step Temp E_pair E_mol TotEng Press 
  410000    1.0014778    0.1970427     20.60147    22.300354   0.46723643 
  410100    1.0101383   0.19519412    20.592132    22.302155   0.10726739 
  410200    1.0086593   0.19231444    20.592055     22.29698   0.27195194 
  410300     1.003489   0.19131593    20.582772    22.278945   0.11070819 
  410400    0.9955544   0.19154247    20.588537    22.273038   0.55475185 
  410500   0.99428435    0.1926833    20.581532    22.265269   0.26764589 
  410600   0.98823302   0.19192642    20.591155     22.26506   0.27692121 
  410700    0.9857736   0.19287822    20.585324    22.256493    0.3443322 
  410800    1.0039819   0.19165386    20.577253    22.274503   0.30378168 
  410900    0.9933595   0.19158861    20.593337    22.274592   0.42021023 
  411000    1.0055632   0.19512468    20.584602    22.287694   0.45984592 
  411100    1.0093304   0.19854773    20.590012    22.302177   0.24452927 
  411200   0.99932741   0.20490883    20.609437    22.312963    0.2316672 
  411300    1.0054164   0.20979301    20.593203    22.310744   0.13106949 
  411400    1.0181252   0.21444369    20.598699    22.339949   0.45931452 
  411500    1.0162505   0.20990071    20.611942    22.345837   0.47359055 
  411600    1.0150699   0.20683776    20.612507    22.341569   0.46321709 
  411700    1.0198547   0.20369881    20.599364    22.332462   0.32735966 
  411800    1.0084867   0.19794495    20.614529    22.324826   0.37056493 
  411900    1.0189003   0.19528191    20.597979    22.321229   0.36207965 
  412000    1.0315576   0.19449688     20.58783    22.329276   0.21168486 
Loop time of 0.619032 on 4 procs (4 MPI x 1 OpenMP) for 2000 steps with 4000 atoms

Pair  time (%) = 0.171839 (27.7593)
Bond  time (%) = 0.0606108 (9.79122)
Neigh time (%) = 0.0339971 (5.49198)
Comm  time (%) = 0.150658 (24.3376)
Outpt time (%) = 0.00111306 (0.179806)
Other time (%) = 0.200814 (32.44)

Nlocal:    1000 ave 1032 max 958 min
Histogram: 1 0 0 1 0 0 0 0 1 1
Nghost:    1090 ave 1099 max 1083 min
Histogram: 1 1 0 0 0 0 1 0 0 1
Neighs:    3123 ave 3253 max 2889 min
Histogram: 1 0 0 0 0 0 1 0 0 2

Total # of neighbors = 12492
Ave neighs/atom = 3.123
Ave special neighs/atom = 5.925
Neighbor list builds = 42
Dangerous builds = 0
shell          head -n 2 Temp.txt | tail -n 1 >> Tempfile.txt
shell          head -n 2 Bond.txt | tail -n 1 >> Bondfile.txt
next           myTempStr
next           myBondStr
if "${myBond} <= 0" then "jump imdinput.txt nobonds"
jump           imdinput.txt loop2here

# specifies the run length in timesteps
run            2000
WARNING: Use special bonds = 0,1,1 with bond style fene (../bond_fene.cpp:188)
Memory usage per processor = 5.58517 Mbytes
Step Temp E_pair E_mol TotEng Press 
  412000    1.0315576   0.19449688     20.58783    22.329276   0.21168486 
  412100    1.0057756   0.19706368    20.595883    22.301233    0.4725473 
  412200    1.0099462   0.19893233    20.585335    22.298808   0.28414167 
  412300    0.9984377   0.19689807     20.60277     22.29695    0.3863559 
  412400    1.0073908   0.19364858    20.585822    22.290179   0.25667046 
  412500    1.0039538   0.19041924     20.58981    22.285783   0.53581997 
  412600   0.99491376   0.19258622     20.59826    22.282843   0.17749678 
  412700    1.0034712   0.19164728    20.589144    22.285621   0.45828097 
  412800    1.0117468   0.19092477    20.581111    22.289277   0.41270007 
  412900    1.0070745   0.18998625    20.590364    22.290585   0.39298061 
  413000    1.0017213   0.18874878    20.596061    22.287016   0.09858723 
  413100    1.0075729   0.19047565    20.602869    22.304326   0.19292083 
  413200    1.0042562   0.19341241    20.602541    22.301962   0.13095241 
  413300    1.0152951    0.1928339    20.599985     22.31538    0.5806327 
  413400    1.0054084   0.19261103    20.612029    22.312376   0.50403492 
  413500    0.9977947   0.19255601    20.600756     22.28963   0.41994332 
  413600   0.99497283   0.19040628    20.616287     22.29878 0.00011659884 
  413700    1.0029782   0.19254098    20.604391    22.301023   0.23159767 
  413800    1.0198006   0.19309396    20.584164    22.306577   0.64137012 
  413900    1.0067334   0.19177006     20.61526    22.316753   0.49605956 
  414000    1.0129533   0.19147635    20.606572    22.317098   0.56863583 
Loop time of 0.614255 on 4 procs (4 MPI x 1 OpenMP) for 2000 steps with 4000 atoms

Pair  time (%) = 0.170215 (27.7107)
Bond  time (%) = 0.0614591 (10.0055)
Neigh time (%) = 0.0336056 (5.47096)
Comm  time (%) = 0.146398 (23.8335)
Outpt time (%) = 0.00111735 (0.181903)
Other time (%) = 0.20146 (32.7975)

Nlocal:    1000 ave 1025 max 965 min
Histogram: 1 0 0 0 1 0 0 0 0 2
Nghost:    1084.25 ave 1137 max 1023 min
Histogram: 1 0 0 0 0 2 0 0 0 1
Neighs:    3054.25 ave 3201 max 2872 min
Histogram: 1 0 1 0 0 0 0 0 0 2

Total # of neighbors = 12217
Ave neighs/atom = 3.05425
Ave special neighs/atom = 5.925
Neighbor list builds = 42
Dangerous builds = 0
shell          head -n 2 Temp.txt | tail -n 1 >> Tempfile.txt
shell          head -n 2 Bond.txt | tail -n 1 >> Bondfile.txt
next           myTempStr
next           myBondStr
if "${myBond} <= 0" then "jump imdinput.txt nobonds"
jump           imdinput.txt loop2here

# specifies the run length in timesteps
run            2000
WARNING: Use special bonds = 0,1,1 with bond style fene (../bond_fene.cpp:188)
Memory usage per processor = 5.58346 Mbytes
Step Temp E_pair E_mol TotEng Press 
  414000    1.0129533   0.19147635    20.606572    22.317098   0.56863583 
  414100    1.0093706   0.19383273    20.612904    22.320414   0.25888907 
  414200    1.0035188   0.19673301    20.602113    22.303748   0.23568445 
  414300    0.9928005   0.19701737    20.622441    22.308287   0.15096406 
  414400    1.0051256   0.19653585     20.60989    22.313737   0.34373077 
  414500    1.0143897   0.19427991    20.591173    22.306657   0.28930208 
  414600    0.9877567   0.19226356    20.611858    22.285387   0.51052889 
  414700   0.99988357   0.19335736    20.586568    22.279376   0.29991382 
  414800    1.0126966   0.19266003    20.591319    22.302644   0.23961547 
  414900    1.0005355    0.1900422    20.604008    22.294478   0.23453135 
  415000    1.0023274   0.18927894    20.595508    22.287902   0.53037733 
  415100   0.99444749    0.1892422    20.607427    22.287968    0.1661432 
  415200    1.0067241   0.19110458    20.601089    22.301902   0.28281916 
  415300    1.0011897   0.19326364    20.594286    22.288959   0.28613727 
  415400   0.99274137   0.19129495    20.600919    22.280953   0.34281264 
  415500   0.99504463   0.19376974    20.605175    22.291138   0.33586257 
  415600    1.0048992   0.19508231     20.59423    22.296285    0.3952545 
  415700   0.99969546   0.19592197    20.599605    22.294695   0.37614821 
  415800   0.99665247   0.19723716    20.593657    22.285499    0.2320732 
  415900    1.0012105   0.19418685    20.596154    22.291781   0.25064237 
  416000    1.0193659   0.18936403    20.588881    22.306911   0.19657492 
Loop time of 0.614512 on 4 procs (4 MPI x 1 OpenMP) for 2000 steps with 4000 atoms

Pair  time (%) = 0.172421 (28.0581)
Bond  time (%) = 0.0628818 (10.2328)
Neigh time (%) = 0.033627 (5.47215)
Comm  time (%) = 0.142397 (23.1723)
Outpt time (%) = 0.00113881 (0.185319)
Other time (%) = 0.202047 (32.8793)

Nlocal:    1000 ave 1011 max 981 min
Histogram: 1 0 0 0 0 0 1 0 0 2
Nghost:    1068 ave 1111 max 1045 min
Histogram: 2 0 0 1 0 0 0 0 0 1
Neighs:    3044.25 ave 3080 max 2993 min
Histogram: 1 0 0 0 0 0 1 1 0 1

Total # of neighbors = 12177
Ave neighs/atom = 3.04425
Ave special neighs/atom = 5.925
Neighbor list builds = 42
Dangerous builds = 0
shell          head -n 2 Temp.txt | tail -n 1 >> Tempfile.txt
shell          head -n 2 Bond.txt | tail -n 1 >> Bondfile.txt
next           myTempStr
next           myBondStr
if "${myBond} <= 0" then "jump imdinput.txt nobonds"
jump           imdinput.txt loop2here

# specifies the run length in timesteps
run            2000
WARNING: Use special bonds = 0,1,1 with bond style fene (../bond_fene.cpp:188)
Memory usage per processor = 5.57931 Mbytes
Step Temp E_pair E_mol TotEng Press 
  416000    1.0193659   0.18936403    20.588881    22.306911   0.19657492 
  416100   0.99877238   0.18840269     20.60452    22.290707   0.44608433 
  416200    1.0049896   0.18813781    20.593828    22.289074   0.38556262 
  416300    1.0031226   0.19092424    20.588582    22.283813   0.27627372 
  416400   0.99016617   0.18880767    20.598046    22.271732    0.2589999 
  416500   0.99140998   0.18537248     20.58904    22.261156   0.37725312 
  416600    1.0016882    0.1844629    20.575537    22.262157   0.55693954 
  416700   0.99162182   0.18144174    20.586625    22.255127   0.46106734 
  416800    0.9779449    0.1794953    20.601698    22.247744   0.25388953 
  416900   0.98846079   0.17848616    20.584878    22.245685   0.21511482 
  417000   0.97974066   0.18108622    20.600118    22.250447   0.20494119 
  417100   0.99506553   0.17936019     20.58528    22.256865   0.48070476 
  417200   0.97715009   0.18367544    20.587173    22.236207   0.30817678 
  417300   0.97583197   0.18182645    20.588664    22.233873   0.47637584 
  417400   0.98730419   0.17961485    20.576706    22.236907   0.42684783 
  417500   0.98420153   0.17773212    20.577158    22.230823   0.35440538 
  417600   0.97403713   0.18122414    20.576104    22.218019   0.34953804 
  417700   0.97453866   0.18353043    20.587076    22.232049  0.053188045 
  417800   0.97744368   0.18266253    20.586024    22.234485   0.48172439 
  417900   0.99553564   0.18405171    20.573589    22.250571   0.35725441 
  418000    1.0135407    0.1839129     20.57453    22.278374   0.45362245 
Loop time of 0.620048 on 4 procs (4 MPI x 1 OpenMP) for 2000 steps with 4000 atoms

Pair  time (%) = 0.171184 (27.6082)
Bond  time (%) = 0.0628254 (10.1323)
Neigh time (%) = 0.0332416 (5.36113)
Comm  time (%) = 0.146798 (23.6753)
Outpt time (%) = 0.00112301 (0.181117)
Other time (%) = 0.204875 (33.0419)

Nlocal:    1000 ave 1014 max 977 min
Histogram: 1 0 0 0 0 0 1 0 1 1
Nghost:    1051 ave 1075 max 1022 min
Histogram: 1 0 0 0 1 0 0 1 0 1
Neighs:    3067.5 ave 3127 max 2941 min
Histogram: 1 0 0 0 0 0 0 0 2 1

Total # of neighbors = 12270
Ave neighs/atom = 3.0675
Ave special neighs/atom = 5.925
Neighbor list builds = 41
Dangerous builds = 0
shell          head -n 2 Temp.txt | tail -n 1 >> Tempfile.txt
shell          head -n 2 Bond.txt | tail -n 1 >> Bondfile.txt
next           myTempStr
next           myBondStr
if "${myBond} <= 0" then "jump imdinput.txt nobonds"
jump           imdinput.txt loop2here

# specifies the run length in timesteps
run            2000
WARNING: Use special bonds = 0,1,1 with bond style fene (../bond_fene.cpp:188)
Memory usage per processor = 5.58053 Mbytes
Step Temp E_pair E_mol TotEng Press 
  418000    1.0135407    0.1839129     20.57453    22.278374   0.45362245 
  418100   0.99894677   0.18564662    20.579637    22.263329     0.321153 
  418200   0.99050842   0.18855493    20.591723    22.265669      0.18317 
  418300    1.0086182   0.19277652    20.569195    22.274521   0.32872239 
  418400   0.97971997   0.19405406    20.601081    22.264348   0.29106558 
  418500   0.99807033   0.19729329    20.579597    22.273621   0.41990685 
  418600    1.0036901    0.1945778    20.576407    22.276143   0.46793242 
  418700    1.0035255   0.19392987    20.581683    22.280525   0.31135976 
  418800   0.99087357   0.19229745    20.586124     22.26436   0.25658278 
  418900   0.98603386   0.19221472    20.597649    22.268545   0.20501946 
  419000   0.98510596   0.19644385    20.597043    22.270776   0.39796977 
  419100   0.99030568   0.19610243    20.583305    22.264495   0.30717852 
  419200   0.99871864   0.19141163    20.590352    22.279467   0.41484131 
  419300    1.0141058   0.19466714    20.577591    22.293037   0.36082673 
  419400     1.006844   0.20126572    20.584561    22.295715   0.25661169 
  419500    1.0003766   0.20631759    20.590636    22.297143   0.31465307 
  419600   0.99408881   0.20511981    20.594336    22.290216   0.25623939 
  419700   0.99691291   0.20385727    20.597003    22.295856   0.33749741 
  419800    1.0011102   0.20255302    20.607742    22.311585   0.58917052 
  419900    1.0056765   0.20302912    20.590384     22.30155   0.18598551 
  420000    1.0075622   0.20311904    20.597084    22.311169   0.34120408 
Loop time of 0.613082 on 4 procs (4 MPI x 1 OpenMP) for 2000 steps with 4000 atoms

Pair  time (%) = 0.172556 (28.1458)
Bond  time (%) = 0.0619501 (10.1047)
Neigh time (%) = 0.0327609 (5.34365)
Comm  time (%) = 0.142463 (23.2371)
Outpt time (%) = 0.00114125 (0.18615)
Other time (%) = 0.20221 (32.9826)

Nlocal:    1000 ave 1048 max 953 min
Histogram: 1 0 0 1 0 0 1 0 0 1
Nghost:    1041.75 ave 1065 max 1020 min
Histogram: 1 0 0 1 0 1 0 0 0 1
Neighs:    3128.25 ave 3351 max 2915 min
Histogram: 1 0 0 0 1 1 0 0 0 1

Total # of neighbors = 12513
Ave neighs/atom = 3.12825
Ave special neighs/atom = 5.925
Neighbor list builds = 41
Dangerous builds = 0
shell          head -n 2 Temp.txt | tail -n 1 >> Tempfile.txt
shell          head -n 2 Bond.txt | tail -n 1 >> Bondfile.txt
next           myTempStr
next           myBondStr
if "${myBond} <= 0" then "jump imdinput.txt nobonds"
jump           imdinput.txt loop2here

# specifies the run length in timesteps
run            2000
WARNING: Use special bonds = 0,1,1 with bond style fene (../bond_fene.cpp:188)
Memory usage per processor = 5.58932 Mbytes
Step Temp E_pair E_mol TotEng Press 
  420000    1.0075622   0.20311904    20.597084    22.311169   0.34120408 
  420100    1.0046009   0.20493909    20.605125    22.316589 -0.019722197 
  420200   0.99816402   0.20699694    20.600558    22.304427   0.45786114 
  420300   0.98923481   0.20857185    20.603289    22.295342   0.19297391 
  420400    1.0038433      0.20767    20.589441      22.3025   0.45435833 
  420500    1.0002638   0.20782062    20.596958    22.304799   0.28479766 
  420600    1.0053792   0.20428889    20.595946    22.307926   0.30929724 
  420700    1.0016477   0.20299044    20.600394     22.30548   0.44234066 
  420800     1.009337   0.20050227    20.601822    22.315951   0.45680465 
  420900    1.0298606   0.19659309    20.582608    22.323605   0.38178779 
  421000    1.0301003   0.19815169     20.57936    22.322275   0.20311694 
  421100    1.0219262   0.19935297    20.607348    22.339207     0.423705 
  421200    1.0230262   0.20062311    20.608504    22.343283   0.39795584 
  421300    1.0338999   0.20202032    20.588111    22.340593   0.27170398 
  421400     1.014881   0.19908723    20.598409    22.319437   0.38097476 
  421500    1.0298813   0.19808297    20.585865    22.328384    0.3012139 
  421600    1.0319654   0.19941146    20.579967     22.32694    0.3112466 
  421700    1.0100413   0.20356678    20.598264    22.316514   0.35032606 
  421800    1.0140398   0.20490728      20.5938    22.319386   0.44249424 
  421900    1.0047082   0.20324849    20.606584    22.316518   0.32488911 
  422000    1.0185177   0.20150764    20.603568     22.33247   0.23079583 
Loop time of 0.619996 on 4 procs (4 MPI x 1 OpenMP) for 2000 steps with 4000 atoms

Pair  time (%) = 0.17544 (28.297)
Bond  time (%) = 0.0621473 (10.0238)
Neigh time (%) = 0.0334666 (5.39787)
Comm  time (%) = 0.145489 (23.4661)
Outpt time (%) = 0.00114781 (0.185131)
Other time (%) = 0.202305 (32.6301)

Nlocal:    1000 ave 1026 max 986 min
Histogram: 2 0 0 1 0 0 0 0 0 1
Nghost:    1058.25 ave 1087 max 1041 min
Histogram: 2 0 0 0 1 0 0 0 0 1
Neighs:    3136.5 ave 3272 max 3038 min
Histogram: 2 0 0 0 0 0 1 0 0 1

Total # of neighbors = 12546
Ave neighs/atom = 3.1365
Ave special neighs/atom = 5.925
Neighbor list builds = 42
Dangerous builds = 0
shell          head -n 2 Temp.txt | tail -n 1 >> Tempfile.txt
shell          head -n 2 Bond.txt | tail -n 1 >> Bondfile.txt
next           myTempStr
next           myBondStr
if "${myBond} <= 0" then "jump imdinput.txt nobonds"
jump           imdinput.txt loop2here

# specifies the run length in timesteps
run            2000
WARNING: Use special bonds = 0,1,1 with bond style fene (../bond_fene.cpp:188)
Memory usage per processor = 5.58419 Mbytes
Step Temp E_pair E_mol TotEng Press 
  422000    1.0185177   0.20150764    20.603568     22.33247   0.23079583 
  422100    1.0258642   0.20094102    20.592347    22.331699   0.17189947 
  422200    1.0019449   0.20024089    20.595688    22.298471   0.41319827 
  422300    1.0052521   0.20187663     20.58736    22.296738   0.44567628 
  422400    1.0075889   0.20411234    20.581562     22.29668   0.47761621 
  422500    1.0053264   0.20554497    20.598035    22.311192   0.38940788 
  422600   0.99175532   0.20673123    20.608146    22.302138   0.19061238 
  422700   0.99020481   0.20438109    20.596906    22.286223   0.36906826 
  422800     1.000926   0.20102184     20.59352    22.295555   0.23516547 
  422900    1.0013912     0.197652    20.583204    22.282567   0.25175486 
  423000    1.0013207   0.19673112    20.610634     22.30897   0.40528097 
  423100    1.0064337   0.19689754    20.600072    22.306243   0.39013194 
  423200    1.0181169   0.19337374    20.600238    22.320406   0.24095514 
  423300     1.019016   0.19001277    20.606204    22.324359   0.44977907 
  423400    1.0142058   0.18906996    20.596765    22.306764   0.47606877 
  423500     1.005218   0.18829142    20.594951    22.290692   0.30213972 
  423600    1.0039295   0.18739161    20.589161    22.282071  0.078554014 
  423700    1.0212456   0.19075642    20.580275    22.302517   0.36189575 
  423800    1.0105547   0.19867714     20.59619     22.31032    0.3009936 
  423900   0.99638347   0.20021891    20.603854    22.298274   0.36142136 
  424000   0.99542278   0.19825099    20.601993    22.293004   0.28037971 
Loop time of 0.629009 on 4 procs (4 MPI x 1 OpenMP) for 2000 steps with 4000 atoms

Pair  time (%) = 0.172608 (27.4413)
Bond  time (%) = 0.0608913 (9.68052)
Neigh time (%) = 0.0345224 (5.48837)
Comm  time (%) = 0.15631 (24.8503)
Outpt time (%) = 0.00112092 (0.178205)
Other time (%) = 0.203556 (32.3613)

Nlocal:    1000 ave 1024 max 971 min
Histogram: 1 0 0 0 0 1 1 0 0 1
Nghost:    1042 ave 1051 max 1025 min
Histogram: 1 0 0 0 0 0 0 1 1 1
Neighs:    3088.5 ave 3323 max 2889 min
Histogram: 2 0 0 0 0 0 0 1 0 1

Total # of neighbors = 12354
Ave neighs/atom = 3.0885
Ave special neighs/atom = 5.925
Neighbor list builds = 42
Dangerous builds = 0
shell          head -n 2 Temp.txt | tail -n 1 >> Tempfile.txt
shell          head -n 2 Bond.txt | tail -n 1 >> Bondfile.txt
next           myTempStr
next           myBondStr
if "${myBond} <= 0" then "jump imdinput.txt nobonds"
jump           imdinput.txt loop2here

# specifies the run length in timesteps
run            2000
WARNING: Use special bonds = 0,1,1 with bond style fene (../bond_fene.cpp:188)
Memory usage per processor = 5.58321 Mbytes
Step Temp E_pair E_mol TotEng Press 
  424000   0.99542278   0.19825099    20.601993    22.293004   0.28037971 
  424100   0.99832326   0.19430623    20.600213     22.29163   0.45676226 
  424200    1.0128293   0.19648548    20.591477    22.306827   0.35282809 
  424300    1.0139441   0.19644413    20.597663    22.314643   0.54574792 
  424400    1.0111358   0.19536915    20.593583    22.305276   0.39592629 
  424500    1.0216122   0.19195423    20.589951     22.31394   0.45540219 
  424600    1.0092208   0.18893243    20.615609    22.317994   0.23343526 
  424700    1.0275554   0.18612132    20.596369    22.323438   0.42443357 
  424800    1.0065037   0.18870608     20.62085    22.318934   0.25915407 
  424900    1.0166304   0.19010914     20.59831    22.312983   0.31182477 
  425000    1.0085106   0.19250664    20.602201    22.307096   0.31685277 
  425100    1.0093764    0.1913534     20.60559    22.310629    0.4845718 
  425200   0.99512472   0.19223062    20.590509    22.275054  0.086884415 
  425300    1.0070445   0.18965367    20.584179    22.284022   0.44600128 
  425400    1.0016858    0.1893384    20.593763    22.285254    0.2904007 
  425500    1.0015422   0.18781342     20.59667    22.286421   0.37582104 
  425600   0.99929908   0.18723142    20.601186    22.286991   0.24687007 
  425700   0.99715326   0.18495614    20.603541    22.283853   0.43428482 
  425800    0.9888365   0.18769525    20.602984    22.273563   0.40890564 
  425900   0.98965879   0.19097019    20.587026    22.262113   0.39071807 
  426000   0.97644952   0.19138156    20.606585    22.262274   0.25152917 
Loop time of 0.623491 on 4 procs (4 MPI x 1 OpenMP) for 2000 steps with 4000 atoms

Pair  time (%) = 0.170903 (27.4107)
Bond  time (%) = 0.0612357 (9.82142)
Neigh time (%) = 0.0342417 (5.49193)
Comm  time (%) = 0.153173 (24.5669)
Outpt time (%) = 0.00119072 (0.190977)
Other time (%) = 0.202747 (32.5181)

Nlocal:    1000 ave 1031 max 960 min
Histogram: 1 0 1 0 0 0 0 0 0 2
Nghost:    1050.5 ave 1072 max 1026 min
Histogram: 1 0 0 1 0 0 0 1 0 1
Neighs:    3087 ave 3294 max 2762 min
Histogram: 1 0 0 0 0 1 0 0 0 2

Total # of neighbors = 12348
Ave neighs/atom = 3.087
Ave special neighs/atom = 5.925
Neighbor list builds = 42
Dangerous builds = 0
shell          head -n 2 Temp.txt | tail -n 1 >> Tempfile.txt
shell          head -n 2 Bond.txt | tail -n 1 >> Bondfile.txt
next           myTempStr
next           myBondStr
if "${myBond} <= 0" then "jump imdinput.txt nobonds"
jump           imdinput.txt loop2here

# specifies the run length in timesteps
run            2000
WARNING: Use special bonds = 0,1,1 with bond style fene (../bond_fene.cpp:188)
Memory usage per processor = 5.58492 Mbytes
Step Temp E_pair E_mol TotEng Press 
  426000   0.97644952   0.19138156    20.606585    22.262274   0.25152917 
  426100    0.9946021   0.19159705    20.587949    22.271076   0.41372165 
  426200   0.98889002   0.19293326    20.583028    22.258926   0.23198594 
  426300   0.99206077   0.19162633    20.593683    22.273029   0.46679187 
  426400   0.99022931   0.19430773    20.597231    22.276511   0.50751391 
  426500    1.0014589    0.1986161    20.590135    22.290564   0.35579951 
  426600    1.0033014   0.19486847    20.592438    22.291882   0.32888722 
  426700    1.0069899   0.19145061     20.59361    22.295168   0.32349106 
  426800    1.0138956   0.19234741    20.586103    22.298913   0.26495034 
  426900    0.9922216   0.19625206    20.598144    22.282356  0.084715996 
  427000   0.99995607   0.20071471    20.589852    22.290126   0.22582316 
  427100   0.99510847   0.20587457    20.601264    22.299428   0.50918303 
  427200   0.99542864   0.20776536    20.591964    22.292499   0.41604398 
  427300   0.99138887   0.20650957    20.577179      22.2704   0.29801825 
  427400   0.99729745   0.20162488    20.579516    22.276713   0.70324327 
  427500   0.99226219   0.19935122    20.597944    22.285316   0.35153673 
  427600    0.9998224   0.19904441    20.596346    22.294749   0.37859074 
  427700   0.99933318   0.20024154    20.592343    22.291209  -0.14727021 
  427800      1.01064   0.20007038    20.590336    22.305988   0.37162878 
  427900    1.0090322   0.20046321    20.589946    22.303579  0.057133065 
  428000    1.0017894   0.20284756    20.586949    22.292105   0.58241787 
Loop time of 0.637747 on 4 procs (4 MPI x 1 OpenMP) for 2000 steps with 4000 atoms

Pair  time (%) = 0.172849 (27.1031)
Bond  time (%) = 0.0613607 (9.62147)
Neigh time (%) = 0.0350415 (5.49457)
Comm  time (%) = 0.162673 (25.5075)
Outpt time (%) = 0.00111669 (0.1751)
Other time (%) = 0.204706 (32.0983)

Nlocal:    1000 ave 1031 max 965 min
Histogram: 1 0 1 0 0 0 0 0 1 1
Nghost:    1081.75 ave 1123 max 1045 min
Histogram: 1 0 0 1 0 1 0 0 0 1
Neighs:    3112.25 ave 3306 max 2838 min
Histogram: 1 0 0 0 1 0 0 0 1 1

Total # of neighbors = 12449
Ave neighs/atom = 3.11225
Ave special neighs/atom = 5.925
Neighbor list builds = 42
Dangerous builds = 0
shell          head -n 2 Temp.txt | tail -n 1 >> Tempfile.txt
shell          head -n 2 Bond.txt | tail -n 1 >> Bondfile.txt
next           myTempStr
next           myBondStr
if "${myBond} <= 0" then "jump imdinput.txt nobonds"
jump           imdinput.txt loop2here

# specifies the run length in timesteps
run            2000
WARNING: Use special bonds = 0,1,1 with bond style fene (../bond_fene.cpp:188)
Memory usage per processor = 5.58492 Mbytes
Step Temp E_pair E_mol TotEng Press 
  428000    1.0017894   0.20284756    20.586949    22.292105   0.58241787 
  428100    1.0041756   0.20311445    20.596357    22.305358   0.52983205 
  428200    1.0153798   0.20262789    20.575632    22.300949   0.39145067 
  428300    1.0089162   0.20316541     20.58993    22.306091   0.26426377 
  428400    1.0118585   0.20514996    20.586316    22.308874   0.36718744 
  428500    1.0012852   0.20793908    20.604089     22.31358   0.13158216 
  428600    1.0025638   0.20821485    20.586443    22.298128   0.44935535 
  428700   0.98882193   0.20690665    20.587746    22.277515   0.19378175 
  428800   0.99151126   0.20401656    20.569881    22.260792   0.45534286 
  428900   0.98213354   0.20191811    20.592192    22.266943 0.0072827935 
  429000   0.98634884    0.2015095    20.593667     22.27433   0.52123672 
  429100    0.9847763     0.197894     20.59031    22.264999    0.4213633 
  429200   0.98828774   0.19431876    20.597175    22.273554   0.16245683 
  429300   0.99304508     0.191262     20.59493    22.275387    0.3488058 
  429400    1.0052093   0.18772982     20.57928    22.274447   0.33016416 
  429500     1.004544   0.18696863     20.57491    22.268318   0.40646075 
  429600    1.0096888   0.18447401    20.572508    22.271137   0.15585763 
  429700   0.99779508   0.18162144    20.587915    22.265855  0.080829039 
  429800    1.0022944   0.18187073    20.582414     22.26735   0.46193511 
  429900    1.0000873   0.18399227    20.591731    22.275479   0.28871403 
  430000   0.99437682   0.18573121     20.59299    22.269914   0.19268662 
Loop time of 0.627434 on 4 procs (4 MPI x 1 OpenMP) for 2000 steps with 4000 atoms

Pair  time (%) = 0.170709 (27.2075)
Bond  time (%) = 0.0619166 (9.86823)
Neigh time (%) = 0.033469 (5.33427)
Comm  time (%) = 0.154122 (24.5639)
Outpt time (%) = 0.00112891 (0.179925)
Other time (%) = 0.206088 (32.8462)

Nlocal:    1000 ave 1014 max 975 min
Histogram: 1 0 0 0 0 0 0 1 1 1
Nghost:    1084 ave 1090 max 1073 min
Histogram: 1 0 0 0 0 0 1 0 0 2
Neighs:    3071.75 ave 3153 max 2902 min
Histogram: 1 0 0 0 0 0 0 1 0 2

Total # of neighbors = 12287
Ave neighs/atom = 3.07175
Ave special neighs/atom = 5.925
Neighbor list builds = 41
Dangerous builds = 0
shell          head -n 2 Temp.txt | tail -n 1 >> Tempfile.txt
shell          head -n 2 Bond.txt | tail -n 1 >> Bondfile.txt
next           myTempStr
next           myBondStr
if "${myBond} <= 0" then "jump imdinput.txt nobonds"
jump           imdinput.txt loop2here

# specifies the run length in timesteps
run            2000
WARNING: Use special bonds = 0,1,1 with bond style fene (../bond_fene.cpp:188)
Memory usage per processor = 5.58102 Mbytes
Step Temp E_pair E_mol TotEng Press 
  430000   0.99437682   0.18573121     20.59299    22.269914   0.19268662 
  430100    1.0020168    0.1909525    20.599542    22.293144  0.079266786 
  430200   0.99476605   0.19222154    20.594253    22.278251   0.58977183 
  430300   0.98944043   0.18886262     20.60058    22.273232   0.26262387 
  430400    1.0024264   0.18979059    20.580227    22.273281   0.41141971 
  430500    0.9907323   0.19270035     20.59811    22.276537   0.38842045 
  430600   0.99521778   0.19260232    20.600718    22.285774   0.34034485 
  430700    1.0031455   0.19405289    20.592249    22.290644   0.41643113 
  430800    0.9959158   0.19417909    20.596284    22.283963   0.43918033 
  430900   0.99076186   0.19507199    20.591217    22.272061   0.28871466 
  431000   0.98925814   0.19349838    20.579396    22.256411   0.46880457 
  431100   0.98109301   0.19503825    20.609287    22.275597  0.066818637 
  431200    0.9770123   0.19435751    20.595182    22.254692   0.40997632 
  431300   0.98504048   0.19068748    20.592758    22.260636     0.167437 
  431400    1.0005835   0.18928462      20.5731    22.262885   0.66793507 
  431500   0.98811798   0.19198907    20.591967    22.265763   0.40431149 
  431600   0.98856264   0.19534726    20.596686    22.274507   0.26894428 
  431700   0.98201595   0.19631793    20.593348    22.262322   0.50623885 
  431800   0.97198854   0.20131203    20.599889    22.258819  0.096386759 
  431900   0.99009724   0.20676207    20.590324    22.281861   0.26771678 
  432000   0.97423243   0.21026272    20.612816    22.284062   0.28121644 
Loop time of 0.624137 on 4 procs (4 MPI x 1 OpenMP) for 2000 steps with 4000 atoms

Pair  time (%) = 0.17326 (27.7599)
Bond  time (%) = 0.0622014 (9.96599)
Neigh time (%) = 0.034605 (5.54445)
Comm  time (%) = 0.151085 (24.207)
Outpt time (%) = 0.00116634 (0.186873)
Other time (%) = 0.20182 (32.3359)

Nlocal:    1000 ave 1015 max 986 min
Histogram: 1 0 1 0 0 0 1 0 0 1
Nghost:    1078.75 ave 1104 max 1040 min
Histogram: 1 0 0 0 0 0 1 1 0 1
Neighs:    3139.5 ave 3264 max 2967 min
Histogram: 1 0 0 0 1 0 0 0 1 1

Total # of neighbors = 12558
Ave neighs/atom = 3.1395
Ave special neighs/atom = 5.925
Neighbor list builds = 43
Dangerous builds = 0
shell          head -n 2 Temp.txt | tail -n 1 >> Tempfile.txt
shell          head -n 2 Bond.txt | tail -n 1 >> Bondfile.txt
next           myTempStr
next           myBondStr
if "${myBond} <= 0" then "jump imdinput.txt nobonds"
jump           imdinput.txt loop2here

# specifies the run length in timesteps
run            2000
WARNING: Use special bonds = 0,1,1 with bond style fene (../bond_fene.cpp:188)
Memory usage per processor = 5.58102 Mbytes
Step Temp E_pair E_mol TotEng Press 
  432000   0.97423243   0.21026272    20.612816    22.284062   0.28121644 
  432100   0.99045554   0.20813246    20.588979    22.282423   0.58229079 
  432200   0.98548077   0.20886167     20.59353    22.280243   0.35706669 
  432300   0.98082171   0.21265882    20.591266    22.274789   0.43271225 
  432400   0.98703761   0.21267938    20.597914    22.290779   0.23682732 
  432500   0.99597065   0.21105684    20.590657    22.295296   0.42093092 
  432600    1.0033725   0.20923549    20.589937    22.303855   0.18263117 
  432700    1.0065287   0.20839181    20.584225    22.302032   0.44254979 
  432800    1.0133933   0.20650987    20.578466    22.304686   0.30622711 
  432900    1.0033583   0.20321532    20.603888    22.311764   0.25963049 
  433000    1.0027465   0.20096923    20.603292    22.308005    0.2753617 
  433100    1.0166344   0.19978084    20.582624    22.306975   0.47831262 
  433200    1.0096534   0.19614877    20.582333    22.292583   0.57202324 
  433300    1.0112729   0.19172289    20.595614    22.303867   0.23244865 
  433400   0.99263257   0.18640353    20.593471    22.268451   0.44056127 
  433500    1.0008278   0.18467355    20.588985    22.274524   0.24021969 
  433600   0.99590127   0.18691658    20.592033    22.272428   0.36797418 
  433700   0.97905421   0.18924724    20.599863    22.257325   0.28749535 
  433800   0.98990398   0.19343707    20.600691    22.278612   0.37154939 
  433900   0.99635916   0.19794122    20.590305    22.282411   0.41498931 
  434000   0.98953338   0.20191423    20.595648    22.281491    0.2885922 
Loop time of 0.617036 on 4 procs (4 MPI x 1 OpenMP) for 2000 steps with 4000 atoms

Pair  time (%) = 0.175978 (28.5199)
Bond  time (%) = 0.0622275 (10.0849)
Neigh time (%) = 0.0334645 (5.42343)
Comm  time (%) = 0.142901 (23.1593)
Outpt time (%) = 0.00115275 (0.186821)
Other time (%) = 0.201311 (32.6256)

Nlocal:    1000 ave 1046 max 968 min
Histogram: 1 1 0 0 1 0 0 0 0 1
Nghost:    1073.75 ave 1092 max 1025 min
Histogram: 1 0 0 0 0 0 0 0 0 3
Neighs:    3093.75 ave 3268 max 2980 min
Histogram: 1 0 1 1 0 0 0 0 0 1

Total # of neighbors = 12375
Ave neighs/atom = 3.09375
Ave special neighs/atom = 5.925
Neighbor list builds = 42
Dangerous builds = 0
shell          head -n 2 Temp.txt | tail -n 1 >> Tempfile.txt
shell          head -n 2 Bond.txt | tail -n 1 >> Bondfile.txt
next           myTempStr
next           myBondStr
if "${myBond} <= 0" then "jump imdinput.txt nobonds"
jump           imdinput.txt loop2here

# specifies the run length in timesteps
run            2000
WARNING: Use special bonds = 0,1,1 with bond style fene (../bond_fene.cpp:188)
Memory usage per processor = 5.58858 Mbytes
Step Temp E_pair E_mol TotEng Press 
  434000   0.98953338   0.20191423    20.595648    22.281491    0.2885922 
  434100   0.98321669   0.20600203    20.599063    22.279521   0.13628823 
  434200    1.0001841   0.20485308    20.581661    22.286415   0.63754851 
  434300    1.0099381   0.20079231    20.603236    22.318557   0.33253232 
  434400    1.0116018   0.19767247    20.593165    22.307861   0.24376687 
  434500    1.0067781   0.19918636    20.610577    22.319553   0.18529974 
  434600    1.0135887   0.20115168    20.610423    22.331578    0.5851296 
  434700    1.0041302   0.20153157    20.609703    22.317054   0.18969933 
  434800    1.0090337   0.20285825    20.605992    22.322022   0.69613277 
  434900    1.0128002   0.20277245    20.603721    22.325313   0.40995014 
  435000    1.0260897   0.20115406    20.586811    22.326715   0.40071949 
  435100    1.0096241   0.19994329    20.603499    22.317499   0.31175775 
  435200     1.018535   0.20079803    20.591177    22.319395   0.18591315 
  435300     1.010152   0.20330919    20.607991     22.32615   0.25139462 
  435400    1.0248323   0.20342722    20.583982    22.324274   0.42512227 
  435500    1.0227245   0.20020454    20.592704    22.326612   0.35643442 
  435600    1.0062342   0.20209742    20.595267    22.306339   0.29690615 
  435700    1.0068132   0.20256012    20.592069    22.304472   0.34066418 
  435800   0.99656355   0.20267785    20.602992    22.300141   0.12891811 
  435900    1.0149254   0.19915115    20.583468    22.304627   0.34527221 
  436000    1.0152513   0.19598012     20.58987    22.308347   0.31179922 
Loop time of 0.609494 on 4 procs (4 MPI x 1 OpenMP) for 2000 steps with 4000 atoms

Pair  time (%) = 0.171021 (28.0595)
Bond  time (%) = 0.0599392 (9.83426)
Neigh time (%) = 0.0330951 (5.42993)
Comm  time (%) = 0.146018 (23.9573)
Outpt time (%) = 0.00112021 (0.183793)
Other time (%) = 0.1983 (32.5352)

Nlocal:    1000 ave 1044 max 943 min
Histogram: 1 0 0 0 0 0 2 0 0 1
Nghost:    1067.5 ave 1073 max 1059 min
Histogram: 1 0 0 0 0 0 1 1 0 1
Neighs:    3125.25 ave 3290 max 2872 min
Histogram: 1 0 0 0 0 0 1 0 1 1

Total # of neighbors = 12501
Ave neighs/atom = 3.12525
Ave special neighs/atom = 5.925
Neighbor list builds = 42
Dangerous builds = 0
shell          head -n 2 Temp.txt | tail -n 1 >> Tempfile.txt
shell          head -n 2 Bond.txt | tail -n 1 >> Bondfile.txt
next           myTempStr
next           myBondStr
if "${myBond} <= 0" then "jump imdinput.txt nobonds"
jump           imdinput.txt loop2here

# specifies the run length in timesteps
run            2000
WARNING: Use special bonds = 0,1,1 with bond style fene (../bond_fene.cpp:188)
Memory usage per processor = 5.58785 Mbytes
Step Temp E_pair E_mol TotEng Press 
  436000    1.0152513   0.19598012     20.58987    22.308347   0.31179922 
  436100   0.99987267   0.19462487    20.606202    22.300261   0.30162684 
  436200   0.98552392   0.19836052    20.604767    22.281044   0.31607862 
  436300    1.0027801   0.20411676    20.594529     22.30244  0.081973181 
  436400    1.0182897   0.20664264    20.584737    22.318432   0.65551711 
  436500   0.99753813   0.21186779    20.595659     22.30346   0.15716012 
  436600   0.98925907   0.20576759    20.591512    22.280797    0.5120185 
  436700   0.99760042   0.20132383    20.580869     22.27822   0.17516268 
  436800    0.9976662   0.19756525    20.597889    22.291579  0.066310179 
  436900    1.0130076   0.19509357    20.579276    22.293501   0.26502567 
  437000    1.0030188   0.19121605    20.589545    22.284913    0.3434184 
  437100   0.99111521   0.18587128    20.596009    22.268181   0.33022172 
  437200   0.99095572     0.184633    20.585944    22.256639   0.16930082 
  437300   0.98904626    0.1845715    20.588191    22.255961   0.27699723 
  437400   0.99963322   0.18794021    20.591627    22.278642   0.41184359 
  437500    1.0144768   0.19146814    20.575553    22.288356   0.42205664 
  437600     1.004164   0.19327019    20.598775    22.297914   0.18656368 
  437700    1.0062159   0.19144779    20.597744    22.298138    0.3420461 
  437800   0.99521304   0.18923924    20.604375    22.286061   0.54151334 
  437900    1.0008881   0.18623405    20.597827    22.285018   0.32137541 
  438000    1.0041552   0.18821571    20.592049    22.286121   0.27296433 
Loop time of 0.610433 on 4 procs (4 MPI x 1 OpenMP) for 2000 steps with 4000 atoms

Pair  time (%) = 0.170541 (27.9377)
Bond  time (%) = 0.0600978 (9.84511)
Neigh time (%) = 0.0332587 (5.44839)
Comm  time (%) = 0.146492 (23.998)
Outpt time (%) = 0.00114298 (0.187241)
Other time (%) = 0.198901 (32.5835)

Nlocal:    1000 ave 1023 max 967 min
Histogram: 1 0 0 0 0 0 1 1 0 1
Nghost:    1064.75 ave 1089 max 1046 min
Histogram: 1 0 1 0 1 0 0 0 0 1
Neighs:    3154 ave 3305 max 2867 min
Histogram: 1 0 0 0 0 0 0 1 1 1

Total # of neighbors = 12616
Ave neighs/atom = 3.154
Ave special neighs/atom = 5.925
Neighbor list builds = 42
Dangerous builds = 0
shell          head -n 2 Temp.txt | tail -n 1 >> Tempfile.txt
shell          head -n 2 Bond.txt | tail -n 1 >> Bondfile.txt
next           myTempStr
next           myBondStr
if "${myBond} <= 0" then "jump imdinput.txt nobonds"
jump           imdinput.txt loop2here

# specifies the run length in timesteps
run            2000
WARNING: Use special bonds = 0,1,1 with bond style fene (../bond_fene.cpp:188)
Memory usage per processor = 5.58102 Mbytes
Step Temp E_pair E_mol TotEng Press 
  438000    1.0041552   0.18821571    20.592049    22.286121   0.27296433 
  438100    0.9785345   0.18821755    20.616618     22.27227   0.43467982 
  438200   0.99114612   0.19153789    20.612422    22.290308   0.22440169 
  438300    1.0017805   0.19312326     20.59714    22.292559   0.51195597 
  438400   0.99636441   0.19353494    20.609541    22.297249    0.4299183 
  438500   0.99630278   0.19211992    20.596954    22.283155   0.47557958 
  438600   0.96990087   0.19267631    20.618256     22.26542   0.11635743 
  438700   0.97762554   0.19299982    20.591895    22.250966   0.42805066 
  438800   0.97927461   0.19250812    20.587398    22.248451   0.60926912 
  438900   0.99292377    0.1913697    20.576652    22.257035   0.19545199 
  439000   0.97906217    0.1967742    20.586167    22.251167   0.30160648 
  439100    0.9823023   0.20131185    20.580052    22.254449   0.28645652 
  439200   0.97791109   0.20135551    20.599857    22.267713   0.28143045 
  439300   0.98907699   0.19885688     20.58687    22.268972   0.21313141 
  439400   0.99368594   0.19670457    20.589007    22.275868   0.29322285 
  439500   0.99120597   0.19310981    20.588898    22.268445   0.31984259 
  439600   0.99139636   0.19361582    20.581277    22.261615   0.29543854 
  439700   0.98720901   0.19377609    20.601993    22.276212   0.27542571 
  439800    1.0005966   0.19179697    20.594943    22.287259   0.44759336 
  439900   0.99672792   0.19090596    20.602702    22.288326   0.44330868 
  440000    1.0087198    0.1921044    20.585233    22.290039   0.49227516 
Loop time of 0.609186 on 4 procs (4 MPI x 1 OpenMP) for 2000 steps with 4000 atoms

Pair  time (%) = 0.169016 (27.7446)
Bond  time (%) = 0.0602748 (9.89431)
Neigh time (%) = 0.0324903 (5.3334)
Comm  time (%) = 0.147156 (24.1561)
Outpt time (%) = 0.00108594 (0.17826)
Other time (%) = 0.199163 (32.6933)

Nlocal:    1000 ave 1022 max 964 min
Histogram: 1 0 0 0 0 0 0 2 0 1
Nghost:    1014.5 ave 1033 max 1007 min
Histogram: 2 1 0 0 0 0 0 0 0 1
Neighs:    3114.75 ave 3182 max 2944 min
Histogram: 1 0 0 0 0 0 0 0 0 3

Total # of neighbors = 12459
Ave neighs/atom = 3.11475
Ave special neighs/atom = 5.925
Neighbor list builds = 41
Dangerous builds = 0
shell          head -n 2 Temp.txt | tail -n 1 >> Tempfile.txt
shell          head -n 2 Bond.txt | tail -n 1 >> Bondfile.txt
next           myTempStr
next           myBondStr
if "${myBond} <= 0" then "jump imdinput.txt nobonds"
jump           imdinput.txt loop2here

# specifies the run length in timesteps
run            2000
WARNING: Use special bonds = 0,1,1 with bond style fene (../bond_fene.cpp:188)
Memory usage per processor = 5.58297 Mbytes
Step Temp E_pair E_mol TotEng Press 
  440000    1.0087198    0.1921044    20.585233    22.290039   0.49227516 
  440100    0.9950636   0.19458021    20.613077    22.299879   0.23690459 
  440200    1.0084504   0.19387695    20.581895     22.28807   0.43473368 
  440300   0.98666595   0.19401056    20.613361       22.287   0.10950458 
  440400    1.0094933   0.19076963    20.591569      22.2962   0.46501109 
  440500    1.0037065   0.18851977    20.591915    22.285618   0.36179875 
  440600    1.0082899   0.18749547    20.590619    22.290171   0.29306879 
  440700    1.0076829   0.18698722    20.590181    22.288315   0.50848229 
  440800    1.0101114   0.18902235    20.592638    22.296449  0.019020423 
  440900    1.0055207   0.18840793    20.577669    22.273981    0.1556228 
  441000    1.0096146    0.1890851    20.572061    22.275189   0.48754187 
  441100    0.9894646    0.1908979    20.586918    22.261641   0.17988864 
  441200     1.008724   0.18973628    20.581038    22.283482   0.45650799 
  441300   0.99608427   0.19065055    20.599941    22.284344   0.30965579 
  441400   0.99027099   0.18797392    20.592973    22.265982   0.60131732 
  441500   0.98110566   0.18940834    20.605016    22.265715   0.40468172 
  441600   0.99393293   0.18945365    20.582817    22.262797   0.23090063 
  441700   0.98247364    0.1870015    20.599089    22.259432   0.39837697 
  441800   0.98454074   0.18537192    20.594008    22.255822   0.47171361 
  441900   0.98880342   0.18522931    20.602049    22.270113   0.50625507 
  442000   0.99677554   0.18348135    20.587676    22.265947   0.44345533 
Loop time of 0.611207 on 4 procs (4 MPI x 1 OpenMP) for 2000 steps with 4000 atoms

Pair  time (%) = 0.168262 (27.5295)
Bond  time (%) = 0.0610942 (9.99568)
Neigh time (%) = 0.0334486 (5.47255)
Comm  time (%) = 0.144559 (23.6515)
Outpt time (%) = 0.00120032 (0.196385)
Other time (%) = 0.202642 (33.1544)

Nlocal:    1000 ave 1015 max 983 min
Histogram: 1 0 1 0 0 0 0 0 0 2
Nghost:    1033 ave 1052 max 1003 min
Histogram: 1 0 0 0 1 0 0 0 0 2
Neighs:    3025.5 ave 3144 max 2945 min
Histogram: 1 1 0 0 1 0 0 0 0 1

Total # of neighbors = 12102
Ave neighs/atom = 3.0255
Ave special neighs/atom = 5.925
Neighbor list builds = 42
Dangerous builds = 0
shell          head -n 2 Temp.txt | tail -n 1 >> Tempfile.txt
shell          head -n 2 Bond.txt | tail -n 1 >> Bondfile.txt
next           myTempStr
next           myBondStr
if "${myBond} <= 0" then "jump imdinput.txt nobonds"
jump           imdinput.txt loop2here

# specifies the run length in timesteps
run            2000
WARNING: Use special bonds = 0,1,1 with bond style fene (../bond_fene.cpp:188)
Memory usage per processor = 5.58126 Mbytes
Step Temp E_pair E_mol TotEng Press 
  442000   0.99677554   0.18348135    20.587676    22.265947   0.44345533 
  442100    1.0027963   0.18597201    20.589585    22.279376   0.19182566 
  442200    1.0107861   0.18505533    20.583423    22.284278   0.21234585 
  442300    1.0054396   0.18158072    20.588735    22.278098   0.30361873 
  442400    1.0145318   0.17884455    20.588829    22.289091   0.40808266 
  442500    1.0127876   0.17718215    20.589454    22.285438   0.39898906 
  442600    1.0065212   0.18211076    20.604306    22.295821 0.0031833117 
  442700    1.0033417   0.18534535    20.598062    22.288044   0.35917092 
  442800     1.003996   0.18743899    20.612483    22.305539   0.22838494 
  442900    1.0260916   0.18887509    20.596317    22.323945   0.45723782 
  443000    1.0286331    0.1889569    20.621449     22.35297   0.26540875 
  443100     1.018208   0.18953807    20.624121    22.340589    0.4625369 
  443200    1.0220328   0.19821657    20.594418    22.325301   0.42285975 
  443300    1.0039387   0.20314336    20.607353    22.316028    0.4554641 
  443400    1.0113593   0.20272128    20.617099    22.336479   0.45577298 
  443500    1.0115451   0.20266254    20.623107    22.342708   0.42553311 
  443600    1.0083511     0.203028    20.608123    22.323299   0.32247381 
  443700    1.0017647   0.20089858     20.61217     22.31534   0.62388287 
  443800    1.0043923   0.19666572    20.594919    22.297797  0.062943711 
  443900    1.0047761   0.19396442    20.593297    22.294048    0.3606137 
  444000   0.99731804   0.19585283    20.585441    22.276897   0.24754564 
Loop time of 0.621779 on 4 procs (4 MPI x 1 OpenMP) for 2000 steps with 4000 atoms

Pair  time (%) = 0.170544 (27.4284)
Bond  time (%) = 0.0622433 (10.0105)
Neigh time (%) = 0.0332854 (5.35325)
Comm  time (%) = 0.143518 (23.0819)
Outpt time (%) = 0.0011912 (0.191579)
Other time (%) = 0.210997 (33.9344)

Nlocal:    1000 ave 1005 max 989 min
Histogram: 1 0 0 0 0 0 0 0 1 2
Nghost:    1014 ave 1053 max 984 min
Histogram: 1 0 0 1 1 0 0 0 0 1
Neighs:    3099 ave 3290 max 2991 min
Histogram: 1 1 0 1 0 0 0 0 0 1

Total # of neighbors = 12396
Ave neighs/atom = 3.099
Ave special neighs/atom = 5.925
Neighbor list builds = 41
Dangerous builds = 0
shell          head -n 2 Temp.txt | tail -n 1 >> Tempfile.txt
shell          head -n 2 Bond.txt | tail -n 1 >> Bondfile.txt
next           myTempStr
next           myBondStr
if "${myBond} <= 0" then "jump imdinput.txt nobonds"
jump           imdinput.txt loop2here

# specifies the run length in timesteps
run            2000
WARNING: Use special bonds = 0,1,1 with bond style fene (../bond_fene.cpp:188)
Memory usage per processor = 5.57858 Mbytes
Step Temp E_pair E_mol TotEng Press 
  444000   0.99731804   0.19585283    20.585441    22.276897   0.24754564 
  444100   0.98931068   0.19825753    20.578663    22.260516   0.46379139 
  444200    0.9778663     0.200414    20.581223     22.24807   0.28405756 
  444300   0.99007391   0.19827153    20.576876    22.259887   0.25100788 
  444400   0.98081416    0.1964845    20.581708    22.249045   0.29273248 
  444500   0.97597409   0.19603349    20.600029    22.259658   0.41297089 
  444600   0.98208681   0.19660281    20.591764    22.261129   0.45388134 
  444700   0.98608543    0.1968134    20.599081    22.274653   0.37188657 
  444800   0.98670177   0.19680943    20.596935    22.273427   0.29991024 
  444900   0.98645181   0.19193932    20.585849    22.257097   0.56773777 
  445000   0.98580836   0.19035046    20.586263    22.254956  0.096173811 
  445100   0.99166331   0.18956672    20.587385    22.264075   0.55013329 
  445200   0.98406372   0.19200584    20.585779    22.253511   0.22606251 
  445300   0.97659532     0.196363    20.587387    22.248277   0.35536157 
  445400   0.97319367   0.20010513    20.587122    22.246653   0.21425727 
  445500   0.97324666   0.19763647    20.576313    22.233454   0.39304323 
  445600   0.97407662   0.19600513    20.596117    22.252872  0.074445498 
  445700   0.99517411   0.19218206    20.574658    22.259228   0.56653699 
  445800   0.99258464   0.18921694    20.590889    22.268611   0.31093823 
  445900    1.0011326   0.19041777    20.583133    22.274874   0.43445148 
  446000    1.0015169     0.186057    20.583108    22.271065   0.32712475 
Loop time of 0.635779 on 4 procs (4 MPI x 1 OpenMP) for 2000 steps with 4000 atoms

Pair  time (%) = 0.176332 (27.7347)
Bond  time (%) = 0.0626621 (9.85595)
Neigh time (%) = 0.032939 (5.18089)
Comm  time (%) = 0.15113 (23.7708)
Outpt time (%) = 0.00128829 (0.202632)
Other time (%) = 0.211429 (33.255)

Nlocal:    1000 ave 1020 max 976 min
Histogram: 1 0 0 1 0 0 0 0 1 1
Nghost:    1054 ave 1094 max 1022 min
Histogram: 1 1 0 0 0 1 0 0 0 1
Neighs:    3088.25 ave 3206 max 2915 min
Histogram: 1 0 0 0 0 1 0 1 0 1

Total # of neighbors = 12353
Ave neighs/atom = 3.08825
Ave special neighs/atom = 5.925
Neighbor list builds = 40
Dangerous builds = 0
shell          head -n 2 Temp.txt | tail -n 1 >> Tempfile.txt
shell          head -n 2 Bond.txt | tail -n 1 >> Bondfile.txt
next           myTempStr
next           myBondStr
if "${myBond} <= 0" then "jump imdinput.txt nobonds"
jump           imdinput.txt loop2here

# specifies the run length in timesteps
run            2000
WARNING: Use special bonds = 0,1,1 with bond style fene (../bond_fene.cpp:188)
Memory usage per processor = 5.58102 Mbytes
Step Temp E_pair E_mol TotEng Press 
  446000    1.0015169     0.186057    20.583108    22.271065   0.32712475 
  446100   0.99751895   0.18587366    20.591422      22.2732   0.25056571 
  446200   0.99002383   0.18585543    20.591158    22.261678   0.63955201 
  446300   0.99590251   0.18530626    20.589754     22.26854   0.34617662 
  446400   0.99763928   0.18773109    20.585176    22.268992   0.12483752 
  446500    1.0035088   0.18532974    20.597125    22.287342   0.61764606 
  446600    1.0023815   0.18479463    20.597034    22.285025   0.24348764 
  446700   0.99936662   0.18425397    20.591825    22.274754   0.28707952 
  446800    1.0035463   0.18276093     20.59471    22.282414   0.42558844 
  446900   0.99431553   0.18148561    20.597615    22.270201  0.056803393 
  447000    1.0037716   0.18294751     20.59375    22.281979   0.51331531 
  447100    1.0081186   0.18638856    20.596972    22.295161    0.2471423 
  447200    1.0049957   0.18915953    20.596759    22.293035   0.58767449 
  447300    1.0038122   0.18522255    20.610199    22.300763   0.21964391 
  447400    1.0126352   0.18275653    20.584621    22.285951  0.089969996 
  447500    1.0081106   0.17751782    20.591107    22.280413   0.41199025 
  447600    1.0078468   0.17577197     20.59694    22.284104   0.34360146 
  447700    1.0033996   0.17885529    20.599025    22.282604   0.21983396 
  447800    1.0000857   0.18276028    20.607379    22.289892   0.17722631 
  447900    1.0232682    0.1820753    20.594102    22.310696   0.36713547 
  448000    1.0268054   0.18172966    20.586278    22.307831   0.37328719 
Loop time of 0.615996 on 4 procs (4 MPI x 1 OpenMP) for 2000 steps with 4000 atoms

Pair  time (%) = 0.166009 (26.9498)
Bond  time (%) = 0.0601804 (9.76961)
Neigh time (%) = 0.0341763 (5.54815)
Comm  time (%) = 0.148956 (24.1814)
Outpt time (%) = 0.00110161 (0.178834)
Other time (%) = 0.205572 (33.3723)

Nlocal:    1000 ave 1021 max 979 min
Histogram: 1 1 0 0 0 0 0 0 1 1
Nghost:    1047.75 ave 1077 max 1022 min
Histogram: 1 0 1 0 0 0 1 0 0 1
Neighs:    3004 ave 3168 max 2869 min
Histogram: 1 0 1 0 0 1 0 0 0 1

Total # of neighbors = 12016
Ave neighs/atom = 3.004
Ave special neighs/atom = 5.925
Neighbor list builds = 42
Dangerous builds = 0
shell          head -n 2 Temp.txt | tail -n 1 >> Tempfile.txt
shell          head -n 2 Bond.txt | tail -n 1 >> Bondfile.txt
next           myTempStr
next           myBondStr
if "${myBond} <= 0" then "jump imdinput.txt nobonds"
jump           imdinput.txt loop2here

# specifies the run length in timesteps
run            2000
WARNING: Use special bonds = 0,1,1 with bond style fene (../bond_fene.cpp:188)
Memory usage per processor = 5.58273 Mbytes
Step Temp E_pair E_mol TotEng Press 
  448000    1.0268054   0.18172966    20.586278    22.307831   0.37328719 
  448100    1.0035861   0.18086905    20.617447    22.303319   0.21253516 
  448200    1.0255591   0.17947359    20.603265    22.320693   0.12798878 
  448300    1.0164008   0.17882772    20.602203    22.305251   0.15353705 
  448400    1.0268205   0.17865655    20.599248     22.31775   0.46075508 
  448500    1.0395013   0.18374682    20.585671     22.32828   0.59241086 
  448600    1.0009166   0.18611465    20.602237    22.289351   0.22134236 
  448700    1.0043494   0.18763616    20.585344    22.279128   0.47008821 
  448800    1.0048049   0.18798936    20.588806    22.283626   0.39368502 
  448900    1.0086372   0.18485196    20.577782    22.275211   0.28321014 
  449000   0.99405791   0.18458952    20.585167    22.260471   0.31162217 
  449100   0.99960338   0.18953585    20.586648    22.275214   0.25632627 
  449200   0.98087477    0.1932427    20.594909    22.259096   0.42219585 
  449300   0.98982804   0.19298831    20.597925    22.275284   0.22567134 
  449400   0.99013438   0.19021145    20.598823    22.273864   0.24556889 
  449500   0.99994534   0.19149711    20.577009     22.26805   0.39374764 
  449600   0.98838645   0.19332528    20.594896     22.27043   0.34665655 
  449700    0.9802096   0.18947561    20.593172    22.252595   0.44859733 
  449800   0.99510974   0.18633458    20.587271    22.265897   0.25486102 
  449900   0.99944682    0.1832592    20.581773    22.263827    0.2645214 
  450000    1.0045107   0.18343537    20.576433    22.266258   0.28117262 
Loop time of 0.616117 on 4 procs (4 MPI x 1 OpenMP) for 2000 steps with 4000 atoms

Pair  time (%) = 0.16987 (27.571)
Bond  time (%) = 0.0615544 (9.9907)
Neigh time (%) = 0.0336466 (5.46107)
Comm  time (%) = 0.143736 (23.3293)
Outpt time (%) = 0.00112772 (0.183037)
Other time (%) = 0.206183 (33.4649)

Nlocal:    1000 ave 1070 max 966 min
Histogram: 2 0 1 0 0 0 0 0 0 1
Nghost:    1029.5 ave 1087 max 987 min
Histogram: 1 0 1 0 1 0 0 0 0 1
Neighs:    3110 ave 3405 max 2877 min
Histogram: 1 0 1 0 0 1 0 0 0 1

Total # of neighbors = 12440
Ave neighs/atom = 3.11
Ave special neighs/atom = 5.925
Neighbor list builds = 42
Dangerous builds = 0
shell          head -n 2 Temp.txt | tail -n 1 >> Tempfile.txt
shell          head -n 2 Bond.txt | tail -n 1 >> Bondfile.txt
next           myTempStr
next           myBondStr
if "${myBond} <= 0" then "jump imdinput.txt nobonds"
jump           imdinput.txt loop2here

# specifies the run length in timesteps
run            2000
WARNING: Use special bonds = 0,1,1 with bond style fene (../bond_fene.cpp:188)
Memory usage per processor = 5.59469 Mbytes
Step Temp E_pair E_mol TotEng Press 
  450000    1.0045107   0.18343537    20.576433    22.266258   0.28117262 
  450100   0.98869472   0.18429286    20.594626     22.26159   0.45851599 
  450200   0.98507309   0.18834259    20.583284    22.248867   0.24968474 
  450300    0.9755036   0.19255711    20.585256    22.240702   0.53181204 
  450400   0.98185345   0.19511929    20.594278     22.26181   0.47883068 
  450500    1.0036377   0.19507459    20.581827    22.281982  0.087650055 
  450600   0.99900197   0.19392474    20.606741    22.298794   0.27005681 
  450700     1.000833    0.1947151    20.604816    22.300405   0.30195003 
  450800   0.99418281   0.19652522    20.598653     22.28608   0.27581628 
  450900   0.99346651   0.19770013    20.601427    22.288954   0.71091188 
  451000   0.98588929   0.19596114     20.61211    22.286535   0.53955896 
  451100    0.9948113   0.19208773    20.610067    22.293999   0.29768311 
  451200    1.0037996   0.18612887    20.595467    22.286919   0.43304871 
  451300    1.0110819   0.18296631    20.596206    22.295416    0.4563849 
  451400   0.99161463   0.18304244    20.618123    22.288216   0.33096364 
  451500   0.98853962   0.18551698     20.61218    22.280135   0.29823582 
  451600   0.99530654    0.1850585    20.608244    22.285889   0.38133974 
  451700    0.9984012   0.18733661    20.594675    22.279239   0.39223387 
  451800   0.98882495   0.19127892    20.617513    22.291658   0.27676673 
  451900    1.0075868    0.1926554    20.598849    22.302506   0.39940469 
  452000    1.0049159   0.19312718    20.599692    22.299816    0.2922918 
Loop time of 0.612137 on 4 procs (4 MPI x 1 OpenMP) for 2000 steps with 4000 atoms

Pair  time (%) = 0.16758 (27.3762)
Bond  time (%) = 0.0604682 (9.87822)
Neigh time (%) = 0.0328122 (5.36028)
Comm  time (%) = 0.145212 (23.7221)
Outpt time (%) = 0.00113988 (0.186213)
Other time (%) = 0.204925 (33.477)

Nlocal:    1000 ave 1015 max 985 min
Histogram: 1 0 1 0 0 0 0 0 1 1
Nghost:    1044.25 ave 1053 max 1035 min
Histogram: 1 0 1 0 0 0 0 1 0 1
Neighs:    3036.5 ave 3177 max 2877 min
Histogram: 1 0 0 0 1 0 0 1 0 1

Total # of neighbors = 12146
Ave neighs/atom = 3.0365
Ave special neighs/atom = 5.925
Neighbor list builds = 41
Dangerous builds = 0
shell          head -n 2 Temp.txt | tail -n 1 >> Tempfile.txt
shell          head -n 2 Bond.txt | tail -n 1 >> Bondfile.txt
next           myTempStr
next           myBondStr
if "${myBond} <= 0" then "jump imdinput.txt nobonds"
jump           imdinput.txt loop2here

# specifies the run length in timesteps
run            2000
WARNING: Use special bonds = 0,1,1 with bond style fene (../bond_fene.cpp:188)
Memory usage per processor = 5.58028 Mbytes
Step Temp E_pair E_mol TotEng Press 
  452000    1.0049159   0.19312718    20.599692    22.299816    0.2922918 
  452100    1.0055442   0.19106794    20.600122     22.29913   0.23174572 
  452200   0.99997245   0.18653961    20.617067     22.30319   0.37707364 
  452300    1.0097232   0.18154435    20.614932    22.310683   0.35465341 
  452400    1.0262929   0.17595478    20.605455    22.320464   0.10268435 
  452500    1.0266842   0.17443102    20.596693    22.310765   0.12252118 
  452600    1.0152393   0.17618009    20.601092     22.29975   0.30083993 
  452700   0.99672047   0.17849035    20.611731    22.284929   0.55121833 
  452800    1.0168212   0.17620517    20.606803    22.307859    0.4641665 
  452900    1.0079029   0.18060513    20.600253    22.292335   0.22697386 
  453000    1.0147692   0.18450892    20.597492    22.303774   0.40335165 
  453100   0.99938924   0.18871378    20.602303    22.289725      0.25846 
  453200    1.0122472   0.18981901    20.583666    22.291476    0.2231964 
  453300    0.9876365   0.19028311    20.591578    22.262946   0.31806671 
  453400   0.99301247    0.1858475     20.58643    22.261424   0.37735051 
  453500   0.99121833   0.18448979     20.59772    22.268665  0.099930874 
  453600    1.0124877   0.18125807    20.577363    22.276973   0.49416204 
  453700    1.0096778   0.17837138    20.597316    22.289826   0.40163115 
  453800    1.0029639   0.17920409    20.605215    22.288489   0.33927148 
  453900    1.0060283   0.18537747    20.591626    22.285669   0.27764047 
  454000    1.0064214   0.19049446    20.600956    22.300705   0.30863371 
Loop time of 0.621033 on 4 procs (4 MPI x 1 OpenMP) for 2000 steps with 4000 atoms

Pair  time (%) = 0.167196 (26.9222)
Bond  time (%) = 0.0616753 (9.93108)
Neigh time (%) = 0.0346656 (5.58193)
Comm  time (%) = 0.147689 (23.7812)
Outpt time (%) = 0.00115514 (0.186003)
Other time (%) = 0.208652 (33.5976)

Nlocal:    1000 ave 1038 max 977 min
Histogram: 2 0 0 0 1 0 0 0 0 1
Nghost:    1051.75 ave 1082 max 1027 min
Histogram: 1 0 0 1 1 0 0 0 0 1
Neighs:    3036.75 ave 3159 max 2973 min
Histogram: 1 1 1 0 0 0 0 0 0 1

Total # of neighbors = 12147
Ave neighs/atom = 3.03675
Ave special neighs/atom = 5.925
Neighbor list builds = 42
Dangerous builds = 0
shell          head -n 2 Temp.txt | tail -n 1 >> Tempfile.txt
shell          head -n 2 Bond.txt | tail -n 1 >> Bondfile.txt
next           myTempStr
next           myBondStr
if "${myBond} <= 0" then "jump imdinput.txt nobonds"
jump           imdinput.txt loop2here

# specifies the run length in timesteps
run            2000
WARNING: Use special bonds = 0,1,1 with bond style fene (../bond_fene.cpp:188)
Memory usage per processor = 5.58663 Mbytes
Step Temp E_pair E_mol TotEng Press 
  454000    1.0064214   0.19049446    20.600956    22.300705   0.30863371 
  454100    1.0060788    0.1893268    20.600571    22.298638   0.34958933 
  454200   0.99450077   0.19020101     20.61435    22.295929   0.43306109 
  454300   0.98822218   0.18968215    20.602927    22.274572   0.23357422 
  454400    1.0081299   0.18996876    20.598373    22.300159   0.36847203 
  454500   0.98822966   0.19102843    20.616982    22.289985   0.23122927 
  454600    1.0151078   0.19527827    20.599644    22.317203   0.37086683 
  454700   0.99487998   0.19803237    20.623471     22.31345   0.33126895 
  454800    1.0026278   0.19665322    20.615298    22.315517   0.20845767 
  454900    1.0132774   0.19158095    20.602437    22.313554   0.34061271 
  455000    1.0156194   0.18899876    20.600127    22.312174   0.30501887 
  455100    1.0081845    0.1897489    20.617868    22.319515   0.39231228 
  455200    1.0125468   0.18833139    20.604539    22.311311   0.22077464 
  455300    1.0103429   0.18603883    20.592369    22.293543   0.58138422 
  455400   0.98671633   0.18424649    20.606273    22.270224  -0.03272014 
  455500    0.9940397   0.18162854    20.598322    22.270638   0.42783476 
  455600   0.98430654   0.18207562    20.619081    22.277247   0.30826202 
  455700   0.99594393   0.17873196    20.592554    22.264828    0.4213722 
  455800    1.0058829   0.18041511    20.591532    22.280394   0.25232463 
  455900    1.0043386   0.17916432    20.600704       22.286   0.40692329 
  456000   0.98806667   0.18078093    20.622603    22.285113  0.083129404 
Loop time of 0.625469 on 4 procs (4 MPI x 1 OpenMP) for 2000 steps with 4000 atoms

Pair  time (%) = 0.166525 (26.624)
Bond  time (%) = 0.0597168 (9.54752)
Neigh time (%) = 0.0348016 (5.56408)
Comm  time (%) = 0.155962 (24.9352)
Outpt time (%) = 0.000953197 (0.152397)
Other time (%) = 0.207511 (33.1768)

Nlocal:    1000 ave 1037 max 954 min
Histogram: 1 0 0 0 0 1 1 0 0 1
Nghost:    1078.75 ave 1095 max 1053 min
Histogram: 1 0 0 0 0 1 0 0 1 1
Neighs:    3000 ave 3208 max 2774 min
Histogram: 1 0 0 0 1 0 1 0 0 1

Total # of neighbors = 12000
Ave neighs/atom = 3
Ave special neighs/atom = 5.925
Neighbor list builds = 42
Dangerous builds = 0
shell          head -n 2 Temp.txt | tail -n 1 >> Tempfile.txt
shell          head -n 2 Bond.txt | tail -n 1 >> Bondfile.txt
next           myTempStr
next           myBondStr
if "${myBond} <= 0" then "jump imdinput.txt nobonds"
jump           imdinput.txt loop2here

# specifies the run length in timesteps
run            2000
WARNING: Use special bonds = 0,1,1 with bond style fene (../bond_fene.cpp:188)
Memory usage per processor = 5.58712 Mbytes
Step Temp E_pair E_mol TotEng Press 
  456000   0.98806667   0.18078093    20.622603    22.285113  0.083129404 
  456100    0.9982489   0.17795122    20.602343    22.277294   0.49343901 
  456200    1.0033503   0.17723211    20.611881    22.293763   0.29550294 
  456300   0.99966436   0.17554536    20.601746    22.276413    0.6624514 
  456400    1.0130338   0.17720805    20.601217    22.297596   0.34311037 
  456500   0.99189204   0.17869405     20.61585     22.28201   0.18494033 
  456600   0.98917303   0.17821369    20.603487    22.265089   0.31799689 
  456700   0.98679475   0.17997554    20.585869    22.245666   0.13023412 
  456800      0.98381   0.18297361    20.581007    22.239327   0.49913935 
  456900   0.98090578   0.18552499    20.582281    22.238797   0.32412077 
  457000   0.97539474   0.18505738    20.604128    22.251911   0.22004941 
  457100   0.98824715   0.18504823    20.582649    22.249697   0.39744199 
  457200   0.98986821    0.1863302    20.601933    22.272694    0.2967711 
  457300    1.0000387   0.18675582    20.595142    22.281581   0.50145847 
  457400      1.01176   0.18403305    20.592652    22.293945   0.30362703 
  457500     1.012563   0.18057472    20.609912    22.308952   0.23547836 
  457600    1.0160303   0.17424405    20.602127    22.300036   0.26335367 
  457700    1.0063785    0.1751644    20.607155     22.29151   0.40291201 
  457800    1.0195852   0.18193879    20.591483    22.302417   0.30419987 
  457900    1.0112708   0.18527603    20.596602    22.298405   0.26288315 
  458000    1.0082613   0.19178081    20.588383    22.292178   0.36277197 
Loop time of 0.613014 on 4 procs (4 MPI x 1 OpenMP) for 2000 steps with 4000 atoms

Pair  time (%) = 0.163064 (26.6004)
Bond  time (%) = 0.0612325 (9.98877)
Neigh time (%) = 0.0341698 (5.57407)
Comm  time (%) = 0.149055 (24.315)
Outpt time (%) = 0.000977278 (0.159422)
Other time (%) = 0.204515 (33.3623)

Nlocal:    1000 ave 1024 max 969 min
Histogram: 1 0 0 0 0 1 0 1 0 1
Nghost:    1073.5 ave 1092 max 1058 min
Histogram: 2 0 0 0 0 0 0 1 0 1
Neighs:    3022.5 ave 3108 max 2836 min
Histogram: 1 0 0 0 0 0 0 0 1 2

Total # of neighbors = 12090
Ave neighs/atom = 3.0225
Ave special neighs/atom = 5.925
Neighbor list builds = 42
Dangerous builds = 0
shell          head -n 2 Temp.txt | tail -n 1 >> Tempfile.txt
shell          head -n 2 Bond.txt | tail -n 1 >> Bondfile.txt
next           myTempStr
next           myBondStr
if "${myBond} <= 0" then "jump imdinput.txt nobonds"
jump           imdinput.txt loop2here

# specifies the run length in timesteps
run            2000
WARNING: Use special bonds = 0,1,1 with bond style fene (../bond_fene.cpp:188)
Memory usage per processor = 5.58468 Mbytes
Step Temp E_pair E_mol TotEng Press 
  458000    1.0082613   0.19178081    20.588383    22.292178   0.36277197 
  458100   0.99493119   0.19738958    20.598901    22.288314   0.61376956 
  458200    1.0037217   0.19903951    20.592766    22.297012   0.17085797 
  458300    1.0039387   0.19808362    20.579692    22.283307   0.28737437 
  458400   0.99147664   0.19638667    20.596373    22.279603  0.050289492 
  458500   0.99314146   0.19483932    20.572221      22.2564   0.31616445 
  458600   0.98672119   0.19461113    20.582266    22.256589   0.27109243 
  458700   0.98594653   0.19425498    20.587152    22.259957    0.5735328 
  458800   0.98097973   0.19401606    20.586373    22.251491   0.36446927 
  458900   0.98034683   0.19587597    20.585502    22.251531   0.43438111 
  459000   0.98407547   0.19841311    20.589682    22.263839  0.085346265 
  459100   0.99952205   0.20049828    20.568389    22.267795   0.82215901 
  459200    1.0033322   0.20058091    20.571468    22.276671   0.17284954 
  459300   0.98947622   0.19842257    20.579705    22.261971   0.20771786 
  459400    0.9938982    0.1958734    20.579978    22.266326    0.1562822 
  459500    1.0031532   0.19347208    20.588895     22.28672   0.34601307 
  459600    1.0051187    0.1910437    20.587389    22.285734   0.32504326 
  459700    1.0012875   0.19015346    20.603349    22.295058   0.55304735 
  459800   0.99406041   0.18840317      20.6155    22.294621   0.43564276 
  459900    1.0003335   0.18936143    20.609589    22.299076   0.13025066 
  460000    1.0047348   0.19205216    20.608846    22.307624   0.50854972 
Loop time of 0.630059 on 4 procs (4 MPI x 1 OpenMP) for 2000 steps with 4000 atoms

Pair  time (%) = 0.173394 (27.5202)
Bond  time (%) = 0.0627589 (9.96079)
Neigh time (%) = 0.0337951 (5.36379)
Comm  time (%) = 0.152926 (24.2716)
Outpt time (%) = 0.000989676 (0.157077)
Other time (%) = 0.206196 (32.7265)

Nlocal:    1000 ave 1017 max 989 min
Histogram: 1 1 0 1 0 0 0 0 0 1
Nghost:    1090.5 ave 1121 max 1046 min
Histogram: 1 0 0 0 0 1 0 0 1 1
Neighs:    3077 ave 3131 max 3017 min
Histogram: 1 0 1 0 0 0 0 0 1 1

Total # of neighbors = 12308
Ave neighs/atom = 3.077
Ave special neighs/atom = 5.925
Neighbor list builds = 41
Dangerous builds = 0
shell          head -n 2 Temp.txt | tail -n 1 >> Tempfile.txt
shell          head -n 2 Bond.txt | tail -n 1 >> Bondfile.txt
next           myTempStr
next           myBondStr
if "${myBond} <= 0" then "jump imdinput.txt nobonds"
jump           imdinput.txt loop2here

# specifies the run length in timesteps
run            2000
WARNING: Use special bonds = 0,1,1 with bond style fene (../bond_fene.cpp:188)
Memory usage per processor = 5.58077 Mbytes
Step Temp E_pair E_mol TotEng Press 
  460000    1.0047348   0.19205216    20.608846    22.307624   0.50854972 
  460100    1.0188775   0.19403074    20.586423    22.308388    0.1948389 
  460200    1.0161641   0.19654127     20.57823    22.298636   0.51891091 
  460300   0.99688165   0.19914528    20.595755    22.289849   0.36938506 
  460400   0.99718616   0.19918233    20.595262     22.28985   0.21653416 
  460500    1.0006604   0.19941556    20.584498    22.284528   0.31162371 
  460600   0.99962327   0.19988705    20.587107    22.286054   0.21530452 
  460700   0.99832919    0.2011397    20.594621     22.29288   0.42124009 
  460800   0.99241881   0.20174698    20.598552    22.288556   0.21531266 
  460900   0.98816954   0.20133841    20.610736    22.293958   0.26278407 
  461000   0.98991304   0.19557794    20.601663    22.281739   0.19701337 
  461100    1.0080801   0.19142104    20.586108    22.289271    0.4676638 
  461200   0.99023761   0.19000167     20.59941    22.274397   0.49507005 
  461300   0.99010049   0.18980382    20.604909    22.279493   0.15643517 
  461400   0.98511303   0.18955004    20.616743    22.283593   0.22372744 
  461500   0.99010407   0.19018804    20.583989    22.258962   0.60451104 
  461600   0.99492113   0.19094469    20.583743    22.266696   0.37630993 
  461700   0.98713784    0.1895164    20.597607     22.26746    0.4242661 
  461800   0.97952623   0.19424043     20.60074    22.263903   0.40820785 
  461900   0.97975078   0.19761004    20.598612    22.265481    0.1220672 
  462000   0.98085481   0.19831945    20.585722    22.254955   0.27916875 
Loop time of 0.632941 on 4 procs (4 MPI x 1 OpenMP) for 2000 steps with 4000 atoms

Pair  time (%) = 0.172776 (27.2974)
Bond  time (%) = 0.0630289 (9.95811)
Neigh time (%) = 0.0337842 (5.33765)
Comm  time (%) = 0.153222 (24.2079)
Outpt time (%) = 0.0010224 (0.161531)
Other time (%) = 0.209107 (33.0374)

Nlocal:    1000 ave 1014 max 970 min
Histogram: 1 0 0 0 0 0 0 1 0 2
Nghost:    1069.5 ave 1101 max 1055 min
Histogram: 1 2 0 0 0 0 0 0 0 1
Neighs:    3056.75 ave 3179 max 2873 min
Histogram: 1 0 0 0 1 0 0 0 0 2

Total # of neighbors = 12227
Ave neighs/atom = 3.05675
Ave special neighs/atom = 5.925
Neighbor list builds = 41
Dangerous builds = 0
shell          head -n 2 Temp.txt | tail -n 1 >> Tempfile.txt
shell          head -n 2 Bond.txt | tail -n 1 >> Bondfile.txt
next           myTempStr
next           myBondStr
if "${myBond} <= 0" then "jump imdinput.txt nobonds"
jump           imdinput.txt loop2here

# specifies the run length in timesteps
run            2000
WARNING: Use special bonds = 0,1,1 with bond style fene (../bond_fene.cpp:188)
Memory usage per processor = 5.58028 Mbytes
Step Temp E_pair E_mol TotEng Press 
  462000   0.98085481   0.19831945    20.585722    22.254955   0.27916875 
  462100   0.98640023   0.19965162    20.579801    22.258683   0.31294519 
  462200   0.99137945   0.19997556    20.575763    22.262436   0.44070173 
  462300   0.99961887   0.19850785    20.585883    22.283444   0.31071516 
  462400    1.0014158    0.1987155    20.583992    22.284456   0.46843988 
  462500    1.0097211   0.19898358    20.580528    22.293715   0.35623028 
  462600   0.99792881   0.19722802    20.581754    22.275501    0.1778542 
  462700     1.004234   0.19647675    20.587022    22.289473   0.18443947 
  462800    1.0027878   0.19612994    20.583131    22.283067   0.25045112 
  462900   0.99697546   0.18874683    20.612031    22.295867   0.51809991 
  463000    1.0135641   0.18556038    20.587207    22.292733   0.44291951 
  463100     1.008105   0.18717682    20.595317    22.294274    0.2985806 
  463200     1.003903   0.18781949    20.598868    22.292166   0.57683434 
  463300    1.0102264   0.18596809    20.589766    22.290695   0.43855675 
  463400   0.99754188    0.1844224    20.595773    22.276134  0.081850392 
  463500    1.0118574   0.17993341    20.582588    22.279928   0.46496754 
  463600    1.0082193   0.17793502    20.595266    22.285152  0.091426579 
  463700      1.02211   0.17962352    20.591054    22.303459   0.25597773 
  463800     1.011754   0.18067423    20.587473    22.285399   0.25268011 
  463900    1.0037024   0.18242381    20.591775    22.279376   0.49597642 
  464000    0.9978381   0.18862443    20.589497    22.274504   0.38140009 
Loop time of 0.633253 on 4 procs (4 MPI x 1 OpenMP) for 2000 steps with 4000 atoms

Pair  time (%) = 0.172521 (27.2437)
Bond  time (%) = 0.0630156 (9.95111)
Neigh time (%) = 0.0347056 (5.48054)
Comm  time (%) = 0.155672 (24.583)
Outpt time (%) = 0.00100398 (0.158543)
Other time (%) = 0.206334 (32.5831)

Nlocal:    1000 ave 1027 max 978 min
Histogram: 1 0 0 1 1 0 0 0 0 1
Nghost:    1032.5 ave 1052 max 1020 min
Histogram: 1 1 0 1 0 0 0 0 0 1
Neighs:    3075.5 ave 3281 max 2912 min
Histogram: 1 1 0 0 0 0 1 0 0 1

Total # of neighbors = 12302
Ave neighs/atom = 3.0755
Ave special neighs/atom = 5.925
Neighbor list builds = 42
Dangerous builds = 0
shell          head -n 2 Temp.txt | tail -n 1 >> Tempfile.txt
shell          head -n 2 Bond.txt | tail -n 1 >> Bondfile.txt
next           myTempStr
next           myBondStr
if "${myBond} <= 0" then "jump imdinput.txt nobonds"
jump           imdinput.txt loop2here

# specifies the run length in timesteps
run            2000
WARNING: Use special bonds = 0,1,1 with bond style fene (../bond_fene.cpp:188)
Memory usage per processor = 5.58321 Mbytes
Step Temp E_pair E_mol TotEng Press 
  464000    0.9978381   0.18862443    20.589497    22.274504   0.38140009 
  464100    1.0032902   0.19117373    20.584471    22.280204   0.36835993 
  464200    1.0016828   0.19410802    20.588339    22.284596   0.27222328 
  464300   0.99533691   0.19834581    20.610426    22.301404   0.17261737 
  464400    1.0011074   0.20279073    20.598222    22.302298   0.49359805 
  464500    1.0006752   0.20242227    20.597362    22.300422   0.12799629 
  464600   0.99206113    0.2005732    20.598582    22.286874   0.53623328 
  464700    1.0009605   0.19897789    20.597879    22.297922   0.30240567 
  464800    1.0127567   0.19722933    20.587474    22.303459   0.33879141 
  464900   0.99661258   0.19646068    20.611062    22.302068   0.13948804 
  465000    1.0051065   0.19501404    20.600774     22.30307   0.19954773 
  465100    1.0093323   0.19777255    20.592934    22.304326   0.49222062 
  465200    1.0053746   0.19615968    20.609293    22.313138    0.2859783 
  465300   0.99494541   0.19264647     20.62616    22.310852   0.29567918 
  465400   0.99547713   0.19130192    20.605803    22.289947   0.29456687 
  465500    1.0074368   0.19094009    20.592288    22.294005   0.30050577 
  465600    1.0008109   0.18942547    20.595018    22.285284   0.55039351 
  465700    1.0023062   0.19022372    20.609116    22.302424   0.29322493 
  465800    1.0008266   0.18967846    20.610114    22.300657   0.12053724 
  465900   0.99886912   0.19052208    20.605941    22.294392   0.55185533 
  466000    1.0090151   0.18703089    20.582205     22.28238    0.4192448 
Loop time of 0.620962 on 4 procs (4 MPI x 1 OpenMP) for 2000 steps with 4000 atoms

Pair  time (%) = 0.17411 (28.0387)
Bond  time (%) = 0.0622618 (10.0267)
Neigh time (%) = 0.033759 (5.43656)
Comm  time (%) = 0.145627 (23.4518)
Outpt time (%) = 0.00106615 (0.171693)
Other time (%) = 0.204139 (32.8746)

Nlocal:    1000 ave 1057 max 953 min
Histogram: 1 0 0 1 1 0 0 0 0 1
Nghost:    1068 ave 1106 max 1043 min
Histogram: 1 0 1 1 0 0 0 0 0 1
Neighs:    3059.25 ave 3322 max 2783 min
Histogram: 1 0 1 0 0 0 0 1 0 1

Total # of neighbors = 12237
Ave neighs/atom = 3.05925
Ave special neighs/atom = 5.925
Neighbor list builds = 42
Dangerous builds = 0
shell          head -n 2 Temp.txt | tail -n 1 >> Tempfile.txt
shell          head -n 2 Bond.txt | tail -n 1 >> Bondfile.txt
next           myTempStr
next           myBondStr
if "${myBond} <= 0" then "jump imdinput.txt nobonds"
jump           imdinput.txt loop2here

# specifies the run length in timesteps
run            2000
WARNING: Use special bonds = 0,1,1 with bond style fene (../bond_fene.cpp:188)
Memory usage per processor = 5.59127 Mbytes
Step Temp E_pair E_mol TotEng Press 
  466000    1.0090151   0.18703089    20.582205     22.28238    0.4192448 
  466100    1.0004828   0.18759401    20.607177     22.29512    0.1819555 
  466200    1.0029488   0.18789318    20.597567    22.289507   0.30701813 
  466300   0.99831886   0.19059202    20.594232    22.281928   0.20069055 
  466400    1.0009739   0.19059038    20.595459    22.287135   0.31070539 
  466500   0.98886738   0.19539861    20.589315    22.267644   0.41131152 
  466600   0.99807344   0.19783796    20.577631    22.272205   0.39182329 
  466700    1.0051545   0.19864274    20.585864    22.291862   0.48824576 
  466800    1.0121546   0.20043843    20.585045    22.303336   0.34895478 
  466900   0.98946535   0.19936524    20.619895    22.303088   0.33272286 
  467000   0.99732841   0.19651622     20.59967    22.291805   0.55191437 
  467100     1.012208   0.19557988    20.594639    22.308151   0.18567939 
  467200    1.0201712   0.19525255      20.6034    22.328527   0.31768819 
  467300    1.0319216   0.19308348    20.595163    22.335742   0.27720381 
  467400    1.0292925   0.19742326    20.604763    22.345739   0.25935876 
  467500    1.0140325   0.19730874    20.609566    22.327543   0.36503148 
  467600    1.0202131   0.19777649    20.593598    22.321312   0.25796456 
  467700    1.0145961   0.19367644    20.609779    22.324969   0.70047923 
  467800    1.0169885   0.19406252    20.601597    22.320761   0.48447083 
  467900    1.0031199   0.19160083    20.616888    22.312792   0.18667268 
  468000    1.0116149   0.19623658    20.582342    22.295621   0.28888349 
Loop time of 0.622638 on 4 procs (4 MPI x 1 OpenMP) for 2000 steps with 4000 atoms

Pair  time (%) = 0.171636 (27.5659)
Bond  time (%) = 0.0599959 (9.63577)
Neigh time (%) = 0.0339903 (5.45909)
Comm  time (%) = 0.151329 (24.3045)
Outpt time (%) = 0.00107431 (0.172542)
Other time (%) = 0.204612 (32.8622)

Nlocal:    1000 ave 1070 max 949 min
Histogram: 1 1 0 0 0 1 0 0 0 1
Nghost:    1060.5 ave 1095 max 1016 min
Histogram: 1 0 0 0 1 0 0 0 1 1
Neighs:    3119.5 ave 3520 max 2844 min
Histogram: 2 0 0 0 0 0 1 0 0 1

Total # of neighbors = 12478
Ave neighs/atom = 3.1195
Ave special neighs/atom = 5.925
Neighbor list builds = 42
Dangerous builds = 0
shell          head -n 2 Temp.txt | tail -n 1 >> Tempfile.txt
shell          head -n 2 Bond.txt | tail -n 1 >> Bondfile.txt
next           myTempStr
next           myBondStr
if "${myBond} <= 0" then "jump imdinput.txt nobonds"
jump           imdinput.txt loop2here

# specifies the run length in timesteps
run            2000
WARNING: Use special bonds = 0,1,1 with bond style fene (../bond_fene.cpp:188)
Memory usage per processor = 5.5942 Mbytes
Step Temp E_pair E_mol TotEng Press 
  468000    1.0116149   0.19623658    20.582342    22.295621   0.28888349 
  468100    1.0065505   0.19925227    20.609035    22.317735   0.24570712 
  468200    1.0150908   0.19992497    20.587803    22.309984    0.4460478 
  468300    1.0088646   0.19962532    20.612009    22.324552   0.30045726 
  468400    1.0243443   0.19260481    20.594363      22.3231   0.56203165 
  468500    1.0094089   0.18680787    20.616356    22.316898   0.46296479 
  468600    1.0122537   0.18585051    20.598833    22.302684  0.081939879 
  468700    1.0267361   0.18248333    20.596438     22.31864   0.28321997 
  468800    1.0178955   0.18392164    20.612702    22.323085    0.2724811 
  468900    1.0276156   0.18745929    20.575124    22.303622   0.61409724 
  469000     1.010237   0.19328148     20.59163    22.299888   0.18084981 
  469100   0.99670933   0.19106095    20.598282    22.284033   0.24317403 
  469200   0.99574383   0.18617263    20.599918    22.279333   0.53322605 
  469300   0.98828032   0.18597615    20.608665    22.276691   0.28253683 
  469400   0.99866569   0.18778776    20.589637    22.275049   0.41605587 
  469500   0.99143146   0.18938037    20.598487    22.274643    0.2439153 
  469600    0.9892631   0.19247632    20.586696    22.262696  0.099808064 
  469700   0.98853046   0.18777422    20.573283    22.243482   0.34886096 
  469800   0.98970112   0.18800633    20.598114    22.270301   0.40806021 
  469900    1.0023701   0.18774372    20.579722    22.270645   0.53201995 
  470000   0.99962317    0.1908754    20.582596    22.272531   0.39682219 
Loop time of 0.625782 on 4 procs (4 MPI x 1 OpenMP) for 2000 steps with 4000 atoms

Pair  time (%) = 0.173557 (27.7344)
Bond  time (%) = 0.0625884 (10.0016)
Neigh time (%) = 0.0344347 (5.50267)
Comm  time (%) = 0.146567 (23.4214)
Outpt time (%) = 0.00112379 (0.179581)
Other time (%) = 0.207511 (33.1603)

Nlocal:    1000 ave 1036 max 931 min
Histogram: 1 0 0 0 0 0 0 1 1 1
Nghost:    1060 ave 1075 max 1045 min
Histogram: 1 0 0 0 1 1 0 0 0 1
Neighs:    3079.5 ave 3399 max 2588 min
Histogram: 1 0 0 0 0 0 1 1 0 1

Total # of neighbors = 12318
Ave neighs/atom = 3.0795
Ave special neighs/atom = 5.925
Neighbor list builds = 42
Dangerous builds = 0
shell          head -n 2 Temp.txt | tail -n 1 >> Tempfile.txt
shell          head -n 2 Bond.txt | tail -n 1 >> Bondfile.txt
next           myTempStr
next           myBondStr
if "${myBond} <= 0" then "jump imdinput.txt nobonds"
jump           imdinput.txt loop2here

# specifies the run length in timesteps
run            2000
WARNING: Use special bonds = 0,1,1 with bond style fene (../bond_fene.cpp:188)
Memory usage per processor = 5.58639 Mbytes
Step Temp E_pair E_mol TotEng Press 
  470000   0.99962317    0.1908754    20.582596    22.272531   0.39682219 
  470100     1.007452   0.19701814    20.580055    22.287873    0.3743934 
  470200    1.0055751   0.20190326    20.580197    22.290086   0.43544264 
  470300     1.004497   0.19988058    20.570791    22.277041   0.18735126 
  470400    1.0089251   0.19935619    20.577647    22.290013   0.30016228 
  470500     1.009119   0.19835294    20.579097     22.29075   0.37746482 
  470600    1.0058178   0.19468967     20.60643     22.30947   0.27968697 
  470700    1.0202392   0.19279017    20.584439    22.307205    0.2864854 
  470800    1.0196324   0.19171154    20.586196    22.306974   0.28847846 
  470900    1.0180348   0.19476224    20.588295    22.309727   0.18797482 
  471000    1.0047406   0.19859141    20.595111    22.300436   0.41260458 
  471100    1.0095147   0.20086617    20.579797    22.294556    0.4074066 
  471200    1.0116928   0.19534013    20.571787    22.284287   0.17415856 
  471300    1.0098839   0.19147075    20.581883    22.287801   0.35407935 
  471400   0.99251245   0.18867656    20.587927       22.265   0.35235799 
  471500   0.98799229   0.18633632    20.599398    22.267353   0.17035693 
  471600    1.0071663   0.18677161    20.585933    22.283076   0.28250718 
  471700   0.99193174    0.1923652    20.598251    22.278142   0.25339352 
  471800    1.0135505   0.20104355    20.575824    22.296813   0.45028899 
  471900    1.0026773   0.20230957    20.595131    22.301081   0.27217623 
  472000    1.0043048   0.20362009    20.603839     22.31354    0.4479413 
Loop time of 0.644928 on 4 procs (4 MPI x 1 OpenMP) for 2000 steps with 4000 atoms

Pair  time (%) = 0.174541 (27.0637)
Bond  time (%) = 0.0616264 (9.55554)
Neigh time (%) = 0.0356207 (5.5232)
Comm  time (%) = 0.164033 (25.4343)
Outpt time (%) = 0.00109822 (0.170285)
Other time (%) = 0.208009 (32.253)

Nlocal:    1000 ave 1046 max 954 min
Histogram: 1 0 0 0 1 1 0 0 0 1
Nghost:    1087.5 ave 1118 max 1052 min
Histogram: 1 0 0 1 0 0 0 0 1 1
Neighs:    3146.5 ave 3546 max 2880 min
Histogram: 1 0 1 1 0 0 0 0 0 1

Total # of neighbors = 12586
Ave neighs/atom = 3.1465
Ave special neighs/atom = 5.925
Neighbor list builds = 42
Dangerous builds = 0
shell          head -n 2 Temp.txt | tail -n 1 >> Tempfile.txt
shell          head -n 2 Bond.txt | tail -n 1 >> Bondfile.txt
next           myTempStr
next           myBondStr
if "${myBond} <= 0" then "jump imdinput.txt nobonds"
jump           imdinput.txt loop2here

# specifies the run length in timesteps
run            2000
WARNING: Use special bonds = 0,1,1 with bond style fene (../bond_fene.cpp:188)
Memory usage per processor = 5.58688 Mbytes
Step Temp E_pair E_mol TotEng Press 
  472000    1.0043048   0.20362009    20.603839     22.31354    0.4479413 
  472100    0.9993865   0.20270963    20.620014    22.321429   0.51415058 
  472200    1.0028168    0.2006995    20.602716    22.307264   0.25058925 
  472300   0.98084817   0.19777647    20.623604    22.292285   0.28720728 
  472400    1.0001779   0.19767283    20.608934    22.306498   0.32418769 
  472500   0.99885021   0.19417417    20.600826    22.292901   0.64428676 
  472600   0.98120854   0.19273023    20.609343    22.273518    0.2454458 
  472700   0.99500536   0.18759949    20.618356     22.29809   0.46153285 
  472800    1.0097288   0.18672917    20.588915    22.289859   0.30173148 
  472900    1.0045393   0.18348261    20.603526     22.29344   0.42597754 
  473000    1.0044607   0.18677155    20.606442    22.299528   0.41530507 
  473100    1.0146927    0.1932856    20.594134    22.309078   0.24545159 
  473200    1.0118034   0.20004018    20.608652    22.326018   0.17383324 
  473300    1.0147776   0.20030019    20.604471    22.326557   0.43594658 
  473400    1.0088942   0.19675817    20.608741    22.318462   0.27319626 
  473500    1.0142833   0.19039656    20.593916    22.305357     0.423699 
  473600     1.026983    0.1905021     20.60232    22.332912   0.22845769 
  473700    1.0104678   0.19236312    20.605223    22.312909   0.21206612 
  473800    1.0198469   0.19365439    20.596017     22.31906   0.20875704 
  473900    1.0070433   0.19917018    20.587185    22.296542   0.56049988 
  474000    1.0131859   0.20057484    20.584879    22.304853   0.32990594 
Loop time of 0.643319 on 4 procs (4 MPI x 1 OpenMP) for 2000 steps with 4000 atoms

Pair  time (%) = 0.175416 (27.2674)
Bond  time (%) = 0.0619924 (9.63634)
Neigh time (%) = 0.0353085 (5.48849)
Comm  time (%) = 0.159965 (24.8656)
Outpt time (%) = 0.0012669 (0.196931)
Other time (%) = 0.20937 (32.5453)

Nlocal:    1000 ave 1020 max 965 min
Histogram: 1 0 0 0 0 1 0 0 0 2
Nghost:    1100.25 ave 1138 max 1043 min
Histogram: 1 0 0 0 0 1 0 0 1 1
Neighs:    3116 ave 3353 max 2843 min
Histogram: 1 0 0 0 1 0 0 1 0 1

Total # of neighbors = 12464
Ave neighs/atom = 3.116
Ave special neighs/atom = 5.925
Neighbor list builds = 42
Dangerous builds = 0
shell          head -n 2 Temp.txt | tail -n 1 >> Tempfile.txt
shell          head -n 2 Bond.txt | tail -n 1 >> Bondfile.txt
next           myTempStr
next           myBondStr
if "${myBond} <= 0" then "jump imdinput.txt nobonds"
jump           imdinput.txt loop2here

# specifies the run length in timesteps
run            2000
WARNING: Use special bonds = 0,1,1 with bond style fene (../bond_fene.cpp:188)
Memory usage per processor = 5.58273 Mbytes
Step Temp E_pair E_mol TotEng Press 
  474000    1.0131859   0.20057484    20.584879    22.304853   0.32990594 
  474100    1.0226289   0.20106476     20.58143    22.316055   0.53807481 
  474200    1.0022425   0.20171657    20.597421    22.302126   0.32957442 
  474300   0.98769994   0.20250283    20.594161    22.277843   0.13712987 
  474400   0.99446034   0.20141123    20.594408    22.287137   0.29725594 
  474500   0.99659901   0.19702923    20.591963    22.283517    0.4346537 
  474600   0.99200599   0.19772467    20.602581    22.287943   0.47320569 
  474700   0.99268388   0.20321942     20.59734    22.289213   0.28896531 
  474800    0.9936436   0.20801191    20.586169    22.284273   0.36025798 
  474900    0.9899933   0.20880025    20.605079    22.298498   0.37632091 
  475000    1.0000315   0.20596776    20.588762    22.294402   0.39365298 
  475100    1.0069947   0.20303776    20.588955    22.302107   0.38213745 
  475200   0.98521844   0.20355327    20.600887    22.281899   0.31482374 
  475300   0.99625955   0.20396466    20.584575    22.282556   0.46337068 
  475400   0.99756543   0.20265078    20.583087    22.281712    0.3475007 
  475500   0.99208879    0.1965363    20.607068    22.291366   0.31900881 
  475600    1.0081371   0.19156801     20.59345    22.296846    0.2645935 
  475700    1.0143122   0.18880789    20.582459    22.292355   0.36452595 
  475800     1.013783   0.19039201     20.58582    22.296507   0.44013312 
  475900    1.0036349   0.19092406     20.59769     22.29369   0.39154455 
  476000   0.99239335   0.19780667    20.596103    22.282128   0.44731022 
Loop time of 0.642216 on 4 procs (4 MPI x 1 OpenMP) for 2000 steps with 4000 atoms

Pair  time (%) = 0.175769 (27.3692)
Bond  time (%) = 0.0605955 (9.43538)
Neigh time (%) = 0.0351617 (5.47506)
Comm  time (%) = 0.164162 (25.5618)
Outpt time (%) = 0.00115067 (0.179171)
Other time (%) = 0.205377 (31.9794)

Nlocal:    1000 ave 1038 max 963 min
Histogram: 1 0 0 1 0 0 1 0 0 1
Nghost:    1099.75 ave 1148 max 993 min
Histogram: 1 0 0 0 0 0 0 0 1 2
Neighs:    3101.5 ave 3358 max 2943 min
Histogram: 2 0 0 0 0 1 0 0 0 1

Total # of neighbors = 12406
Ave neighs/atom = 3.1015
Ave special neighs/atom = 5.925
Neighbor list builds = 42
Dangerous builds = 0
shell          head -n 2 Temp.txt | tail -n 1 >> Tempfile.txt
shell          head -n 2 Bond.txt | tail -n 1 >> Bondfile.txt
next           myTempStr
next           myBondStr
if "${myBond} <= 0" then "jump imdinput.txt nobonds"
jump           imdinput.txt loop2here

# specifies the run length in timesteps
run            2000
WARNING: Use special bonds = 0,1,1 with bond style fene (../bond_fene.cpp:188)
Memory usage per processor = 5.58639 Mbytes
Step Temp E_pair E_mol TotEng Press 
  476000   0.99239335   0.19780667    20.596103    22.282128   0.44731022 
  476100   0.98767409   0.20602303    20.589903    22.277067   0.25046145 
  476200   0.99419106   0.21058896    20.578966    22.280469   0.24975138 
  476300   0.99027469   0.20684345    20.595437    22.287321   0.41177225 
  476400   0.98782012   0.19941567    20.591093    22.271868   0.37742566 
  476500   0.97190176   0.19678992     20.59629    22.250568   0.38186766 
  476600   0.98597729   0.19885608    20.586523    22.263976    0.5133094 
  476700    0.9789514   0.20091861    20.585173    22.254152   0.24705461 
  476800   0.98879717   0.20443861    20.585092    22.272355   0.17458921 
  476900   0.99916575   0.20597632    20.597971    22.302321   0.46598565 
  477000    1.0119677   0.20137864    20.583825    22.302775   0.76734567 
  477100     1.016157   0.19731165    20.573928    22.295095   0.17421306 
  477200    1.0022514   0.19803189    20.587104    22.288137   0.35668083 
  477300    1.0043202   0.19652405     20.58237    22.284998   0.27404357 
  477400    1.0025267   0.19752168    20.598203    22.299139   0.40458735 
  477500    1.0041815   0.20046694    20.586943    22.293305   0.44269212 
  477600    1.0063017   0.20288576    20.582795    22.294755   0.30721657 
  477700    1.0110559   0.20472768    20.596668    22.317601   0.28487824 
  477800    1.0062708   0.20849046     20.60326    22.320779   0.32515755 
  477900    1.0340186   0.20476518    20.576844     22.33225   0.21063925 
  478000    1.0306138   0.19936224    20.584845    22.329741   0.32944677 
Loop time of 0.639546 on 4 procs (4 MPI x 1 OpenMP) for 2000 steps with 4000 atoms

Pair  time (%) = 0.177139 (27.6977)
Bond  time (%) = 0.0608868 (9.52032)
Neigh time (%) = 0.0348833 (5.45438)
Comm  time (%) = 0.157005 (24.5495)
Outpt time (%) = 0.00120538 (0.188475)
Other time (%) = 0.208426 (32.5896)

Nlocal:    1000 ave 1031 max 967 min
Histogram: 1 0 0 1 0 0 0 1 0 1
Nghost:    1044.5 ave 1076 max 1015 min
Histogram: 1 0 1 0 0 0 1 0 0 1
Neighs:    3124.75 ave 3344 max 2906 min
Histogram: 1 0 0 0 1 1 0 0 0 1

Total # of neighbors = 12499
Ave neighs/atom = 3.12475
Ave special neighs/atom = 5.925
Neighbor list builds = 42
Dangerous builds = 0
shell          head -n 2 Temp.txt | tail -n 1 >> Tempfile.txt
shell          head -n 2 Bond.txt | tail -n 1 >> Bondfile.txt
next           myTempStr
next           myBondStr
if "${myBond} <= 0" then "jump imdinput.txt nobonds"
jump           imdinput.txt loop2here

# specifies the run length in timesteps
run            2000
WARNING: Use special bonds = 0,1,1 with bond style fene (../bond_fene.cpp:188)
Memory usage per processor = 5.58468 Mbytes
Step Temp E_pair E_mol TotEng Press 
  478000    1.0306138   0.19936224    20.584845    22.329741   0.32944677 
  478100    1.0398487   0.20113848    20.585557    22.346078   0.34938862 
  478200    1.0252481   0.20293994    20.599674    22.340101   0.14694747 
  478300     1.007346   0.20703666    20.584712    22.302389   0.41536734 
  478400    1.0028145   0.20586167    20.584356    22.294063   0.36462605 
  478500    1.0040936    0.2000565    20.604296    22.310117    0.4564387 
  478600    1.0096799   0.19871215    20.606498    22.319351    0.1658668 
  478700    1.0266842   0.19703963    20.589713    22.326394   0.29239085 
  478800    1.0264302   0.19798337    20.608101    22.345344   0.37560346 
  478900    1.0216349   0.19914615    20.602894    22.334109   0.19681593 
  479000    1.0101068   0.20043345    20.599087    22.314302   0.33318574 
  479100   0.99735552   0.20246874    20.600216    22.298344    0.4790401 
  479200   0.98897271   0.20388439    20.596739    22.283712   0.39099996 
  479300   0.98569091   0.20489361     20.59043    22.273491   0.46729519 
  479400    1.0025601   0.20091377    20.582001    22.286379   0.48760059 
  479500   0.97769578   0.19895105    20.586392     22.25152   0.16825342 
  479600   0.98892246   0.19676581    20.574258    22.254037   0.66781798 
  479700   0.98595046   0.19845434    20.586213    22.263224   0.38592463 
  479800   0.99264227   0.19896915    20.594112    22.281672   0.37147879 
  479900    1.0003197   0.19875846    20.595037    22.293899   0.29336498 
  480000   0.99820934   0.19861959    20.601424    22.296983   0.29400596 
Loop time of 0.622457 on 4 procs (4 MPI x 1 OpenMP) for 2000 steps with 4000 atoms

Pair  time (%) = 0.174347 (28.0095)
Bond  time (%) = 0.0614784 (9.87674)
Neigh time (%) = 0.0338265 (5.43435)
Comm  time (%) = 0.147749 (23.7365)
Outpt time (%) = 0.00115198 (0.18507)
Other time (%) = 0.203904 (32.7579)

Nlocal:    1000 ave 1040 max 968 min
Histogram: 1 0 1 0 0 1 0 0 0 1
Nghost:    1046.75 ave 1067 max 1005 min
Histogram: 1 0 0 0 0 0 0 1 0 2
Neighs:    3150 ave 3361 max 2987 min
Histogram: 1 0 1 0 1 0 0 0 0 1

Total # of neighbors = 12600
Ave neighs/atom = 3.15
Ave special neighs/atom = 5.925
Neighbor list builds = 42
Dangerous builds = 0
shell          head -n 2 Temp.txt | tail -n 1 >> Tempfile.txt
shell          head -n 2 Bond.txt | tail -n 1 >> Bondfile.txt
next           myTempStr
next           myBondStr
if "${myBond} <= 0" then "jump imdinput.txt nobonds"
jump           imdinput.txt loop2here

# specifies the run length in timesteps
run            2000
WARNING: Use special bonds = 0,1,1 with bond style fene (../bond_fene.cpp:188)
Memory usage per processor = 5.58688 Mbytes
Step Temp E_pair E_mol TotEng Press 
  480000   0.99820934   0.19861959    20.601424    22.296983   0.29400596 
  480100   0.99803037   0.20220923      20.5903    22.289181   0.39596956 
  480200   0.98618417   0.20642008    20.598033    22.283359   0.20022618 
  480300    0.9861317   0.20576793    20.597202    22.281798   0.33349128 
  480400   0.99599967   0.20105364    20.593987    22.288667   0.26640059 
  480500    1.0019501   0.19809987    20.597738    22.298387   0.33071186 
  480600    1.0115032   0.19979882    20.589705    22.306379   0.58051034 
  480700   0.99648836   0.19713921    20.588966    22.280464    0.1319502 
  480800    1.0083367   0.19143478    20.570516    22.274078   0.45397815 
  480900   0.99879583   0.18710852    20.575126    22.260053   0.22363876 
  481000   0.98500712   0.18647154    20.599349    22.262961  0.063970113 
  481100   0.99991513   0.18594324    20.584651    22.270092   0.49147939 
  481200   0.98271308   0.18506007    20.605501    22.264262   0.37854051 
  481300    1.0068359   0.18824894    20.588308    22.286433    0.2288621 
  481400    1.0109224    0.1860965    20.589639     22.29174   0.42200879 
  481500    1.0255087   0.18629448    20.580299    22.304472    0.4599437 
  481600    1.0137527   0.18651091    20.592355    22.299115    0.3764976 
  481700    1.0067763   0.18869839    20.596745     22.29523   0.29073222 
  481800    1.0013563   0.19269568    20.597462    22.291817   0.39981714 
  481900    1.0063202    0.1950593    20.594928    22.299091   0.25677946 
  482000   0.99393146   0.19570719    20.592615    22.278846   0.44385494 
Loop time of 0.624261 on 4 procs (4 MPI x 1 OpenMP) for 2000 steps with 4000 atoms

Pair  time (%) = 0.17392 (27.8601)
Bond  time (%) = 0.061352 (9.82794)
Neigh time (%) = 0.0342168 (5.48117)
Comm  time (%) = 0.148235 (23.7456)
Outpt time (%) = 0.00113094 (0.181164)
Other time (%) = 0.205407 (32.904)

Nlocal:    1000 ave 1042 max 966 min
Histogram: 1 0 0 1 1 0 0 0 0 1
Nghost:    1052.5 ave 1090 max 1020 min
Histogram: 1 1 0 0 0 0 0 1 0 1
Neighs:    3121 ave 3479 max 2914 min
Histogram: 2 0 0 0 1 0 0 0 0 1

Total # of neighbors = 12484
Ave neighs/atom = 3.121
Ave special neighs/atom = 5.925
Neighbor list builds = 42
Dangerous builds = 0
shell          head -n 2 Temp.txt | tail -n 1 >> Tempfile.txt
shell          head -n 2 Bond.txt | tail -n 1 >> Bondfile.txt
next           myTempStr
next           myBondStr
if "${myBond} <= 0" then "jump imdinput.txt nobonds"
jump           imdinput.txt loop2here

# specifies the run length in timesteps
run            2000
WARNING: Use special bonds = 0,1,1 with bond style fene (../bond_fene.cpp:188)
Memory usage per processor = 5.58761 Mbytes
Step Temp E_pair E_mol TotEng Press 
  482000   0.99393146   0.19570719    20.592615    22.278846   0.44385494 
  482100   0.98002162   0.19650917    20.608045    22.274219   0.44482291 
  482200   0.99224837   0.19546099    20.606336    22.289798   0.48782151 
  482300   0.99730655   0.19735317       20.596    22.288939   0.37736895 
  482400    1.0107519   0.19502794    20.582956    22.293732   0.28059144 
  482500    1.0088915   0.19250281    20.589939    22.295401   0.10460726 
  482600    1.0007492   0.19008865    20.590661    22.281499   0.28565284 
  482700    1.0053559   0.19249227    20.568935    22.269084   0.19024923 
  482800   0.98698379   0.19252307    20.596496    22.269124    0.4710017 
  482900   0.99549333   0.19239614    20.584146    22.269409   0.54699892 
  483000   0.99799696   0.19037245    20.591836     22.27883   0.27651912 
  483100     1.011641   0.18999755    20.587165    22.294244   0.17526676 
  483200    1.0089714   0.18877911    20.581484    22.283341   0.43706622 
  483300   0.99569107   0.18817842    20.615738     22.29708   0.15656641 
  483400    1.0056437   0.18728765    20.599908    22.295285   0.33293098 
  483500    1.0078925   0.18957409     20.58386    22.284895   0.38871405 
  483600   0.99128283   0.19035894    20.603067    22.279979   0.27184627 
  483700   0.99850388   0.19311215     20.58799    22.278484   0.54892484 
  483800    1.0017043   0.19249029    20.588698    22.283369   0.57237712 
  483900   0.99838854   0.19311986    20.589339    22.279667   0.21694235 
  484000   0.99131067   0.19123012    20.591094    22.268918   0.29896176 
Loop time of 0.615151 on 4 procs (4 MPI x 1 OpenMP) for 2000 steps with 4000 atoms

Pair  time (%) = 0.168774 (27.4361)
Bond  time (%) = 0.0603229 (9.80619)
Neigh time (%) = 0.0338622 (5.5047)
Comm  time (%) = 0.149253 (24.2628)
Outpt time (%) = 0.000971913 (0.157996)
Other time (%) = 0.201967 (32.8322)

Nlocal:    1000 ave 1043 max 966 min
Histogram: 1 0 1 0 0 1 0 0 0 1
Nghost:    1073.75 ave 1105 max 1044 min
Histogram: 1 0 1 0 0 0 0 1 0 1
Neighs:    3093.5 ave 3383 max 2794 min
Histogram: 1 0 0 1 0 0 1 0 0 1

Total # of neighbors = 12374
Ave neighs/atom = 3.0935
Ave special neighs/atom = 5.925
Neighbor list builds = 42
Dangerous builds = 0
shell          head -n 2 Temp.txt | tail -n 1 >> Tempfile.txt
shell          head -n 2 Bond.txt | tail -n 1 >> Bondfile.txt
next           myTempStr
next           myBondStr
if "${myBond} <= 0" then "jump imdinput.txt nobonds"
jump           imdinput.txt loop2here

# specifies the run length in timesteps
run            2000
WARNING: Use special bonds = 0,1,1 with bond style fene (../bond_fene.cpp:188)
Memory usage per processor = 5.58907 Mbytes
Step Temp E_pair E_mol TotEng Press 
  484000   0.99131067   0.19123012    20.591094    22.268918   0.29896176 
  484100    1.0006442   0.18886062    20.580229     22.26968   0.38984039 
  484200   0.98782356   0.19028086     20.58095    22.252595   0.51180021 
  484300    0.9894934   0.19442056     20.57418     22.25247   0.18855692 
  484400    0.9876771   0.19739148    20.583962    22.262499   0.26576343 
  484500    0.9869326   0.20047402    20.577745    22.258248   0.42881499 
  484600    1.0013669    0.2007473    20.571212    22.273634   0.35659765 
  484700   0.99519176   0.20607099    20.569272    22.267758   0.57026653 
  484800   0.98211064   0.21013622    20.599763    22.282697  0.071002189 
  484900    1.0009511   0.20614106    20.587575    22.294767   0.38717565 
  485000   0.99619927   0.20461491    20.587561    22.286101   0.31280595 
  485100    0.9954225   0.20143431    20.584577    22.278772    0.2506928 
  485200   0.98758163   0.20224213    20.600509    22.283754   0.32748458 
  485300   0.99348277    0.2056768    20.583732     22.27926   0.16657777 
  485400   0.99460373   0.20766008    20.580511    22.279704   0.46639376 
  485500   0.98521777   0.20359933    20.596062    22.277119   0.29390325 
  485600    1.0003581   0.19701535    20.582164    22.279341   0.26770675 
  485700    1.0017247   0.19362499    20.592181    22.288018   0.39836361 
  485800    1.0027179   0.18905118    20.581633    22.274385   0.35565102 
  485900   0.99972672   0.19389186    20.589323     22.28243   0.27067186 
  486000    1.0017123   0.19447969    20.584173    22.280846   0.44778955 
Loop time of 0.62813 on 4 procs (4 MPI x 1 OpenMP) for 2000 steps with 4000 atoms

Pair  time (%) = 0.17308 (27.5548)
Bond  time (%) = 0.062117 (9.88919)
Neigh time (%) = 0.0357865 (5.69731)
Comm  time (%) = 0.150547 (23.9675)
Outpt time (%) = 0.00105309 (0.167656)
Other time (%) = 0.205546 (32.7235)

Nlocal:    1000 ave 1018 max 982 min
Histogram: 1 0 1 0 0 0 0 1 0 1
Nghost:    1050.25 ave 1131 max 984 min
Histogram: 1 1 0 0 0 0 1 0 0 1
Neighs:    3108.25 ave 3224 max 2974 min
Histogram: 1 0 1 0 0 0 0 0 0 2

Total # of neighbors = 12433
Ave neighs/atom = 3.10825
Ave special neighs/atom = 5.925
Neighbor list builds = 44
Dangerous builds = 0
shell          head -n 2 Temp.txt | tail -n 1 >> Tempfile.txt
shell          head -n 2 Bond.txt | tail -n 1 >> Bondfile.txt
next           myTempStr
next           myBondStr
if "${myBond} <= 0" then "jump imdinput.txt nobonds"
jump           imdinput.txt loop2here

# specifies the run length in timesteps
run            2000
WARNING: Use special bonds = 0,1,1 with bond style fene (../bond_fene.cpp:188)
Memory usage per processor = 5.58004 Mbytes
Step Temp E_pair E_mol TotEng Press 
  486000    1.0017123   0.19447969    20.584173    22.280846   0.44778955 
  486100    1.0028967   0.19228022    20.605233    22.301482   0.29269312 
  486200    1.0077692   0.18979179    20.580896    22.281964   0.34529227 
  486300    1.0156336   0.18971842    20.573785    22.286573   0.39271614 
  486400    1.0176285   0.19203921    20.570783    22.288883   0.51622173 
  486500   0.99764465   0.19397181    20.601388    22.291453  0.024585114 
  486600   0.99147322   0.19489886    20.605048    22.286785   0.43609129 
  486700    1.0100676   0.19537325    20.587882    22.297978   0.27027717 
  486800    1.0004487   0.19578247    20.589093    22.285173    0.3926566 
  486900    0.9966217   0.19726814    20.603452    22.295279   0.45999181 
  487000   0.99833881   0.19787294     20.59589    22.290896   0.16202087 
  487100    1.0093993    0.1984146    20.595458    22.307593   0.42161793 
  487200    1.0089496   0.20034099    20.590334    22.303721    0.4688314 
  487300   0.99914775   0.19913487    20.592351    22.289832    0.2863151 
  487400   0.99336135    0.1986864    20.588096    22.276452   0.24913168 
  487500   0.99621152     0.200408    20.593897    22.288249   0.51586948 
  487600    1.0096045   0.19980143    20.597064    22.310894   0.49824399 
  487700    0.9998078   0.20451488    20.602257    22.306109   0.32969523 
  487800   0.99708734   0.20839897    20.607106    22.310763   0.18178303 
  487900   0.99960842   0.20926146    20.593914    22.302213   0.33982045 
  488000    1.0057694   0.20550426    20.584695    22.298476   0.33183654 
Loop time of 0.631618 on 4 procs (4 MPI x 1 OpenMP) for 2000 steps with 4000 atoms

Pair  time (%) = 0.17464 (27.6497)
Bond  time (%) = 0.0611465 (9.68093)
Neigh time (%) = 0.0353978 (5.60431)
Comm  time (%) = 0.153693 (24.3332)
Outpt time (%) = 0.00105101 (0.166399)
Other time (%) = 0.20569 (32.5656)

Nlocal:    1000 ave 1029 max 976 min
Histogram: 1 0 0 1 1 0 0 0 0 1
Nghost:    1046.75 ave 1061 max 1033 min
Histogram: 2 0 0 0 0 0 0 0 0 2
Neighs:    3128.75 ave 3310 max 2926 min
Histogram: 1 1 0 0 0 0 0 0 0 2

Total # of neighbors = 12515
Ave neighs/atom = 3.12875
Ave special neighs/atom = 5.925
Neighbor list builds = 43
Dangerous builds = 0
shell          head -n 2 Temp.txt | tail -n 1 >> Tempfile.txt
shell          head -n 2 Bond.txt | tail -n 1 >> Bondfile.txt
next           myTempStr
next           myBondStr
if "${myBond} <= 0" then "jump imdinput.txt nobonds"
jump           imdinput.txt loop2here

# specifies the run length in timesteps
run            2000
WARNING: Use special bonds = 0,1,1 with bond style fene (../bond_fene.cpp:188)
Memory usage per processor = 5.58395 Mbytes
Step Temp E_pair E_mol TotEng Press 
  488000    1.0057694   0.20550426    20.584695    22.298476   0.33183654 
  488100    1.0056146   0.20135117    20.584214     22.29361   0.22788285 
  488200   0.99268436   0.19954112     20.59389    22.282086   0.33414072 
  488300    1.0068694   0.19610638    20.595909    22.301942   0.31459466 
  488400   0.99163796   0.19334675    20.599074    22.279505   0.33617937 
  488500   0.99421619   0.19640439    20.597464    22.284819   0.24369419 
  488600   0.99176862     0.196895    20.613776    22.297952   0.32750865 
  488700    1.0084095   0.19395088    20.598442    22.304629   0.23061786 
  488800    1.0095506   0.19561811    20.588607    22.298172   0.38709753 
  488900   0.99798313   0.19719383    20.611471    22.305266   0.35528722 
  489000    1.0119028   0.19439724    20.597163    22.309035   0.45108329 
  489100    1.0268141   0.19240432    20.593173    22.325414   0.20967375 
  489200     1.025621   0.18709578    20.602937     22.32808   0.23013386 
  489300    1.0231169   0.18502969    20.614703    22.334025   0.29467759 
  489400    1.0275335   0.18337403     20.58497    22.309259   0.36392607 
  489500    1.0232668   0.18261304    20.588439    22.305568   0.23177374 
  489600    1.0137956   0.18278859    20.598964    22.302065   0.31648875 
  489700    1.0009388   0.18306057    20.615276    22.299369   0.23397697 
  489800   0.99840303   0.18615366    20.606025    22.289409   0.34773393 
  489900    1.0066586   0.19230461    20.598797    22.300712    0.5220885 
  490000    1.0119738   0.19337619    20.593501    22.304458   0.32470063 
Loop time of 0.639712 on 4 procs (4 MPI x 1 OpenMP) for 2000 steps with 4000 atoms

Pair  time (%) = 0.174735 (27.3146)
Bond  time (%) = 0.0609306 (9.52469)
Neigh time (%) = 0.0352624 (5.51223)
Comm  time (%) = 0.158864 (24.8336)
Outpt time (%) = 0.00110972 (0.173472)
Other time (%) = 0.208811 (32.6414)

Nlocal:    1000 ave 1027 max 986 min
Histogram: 1 1 1 0 0 0 0 0 0 1
Nghost:    1058.5 ave 1070 max 1036 min
Histogram: 1 0 0 0 0 0 1 0 0 2
Neighs:    3074 ave 3296 max 2916 min
Histogram: 1 0 0 2 0 0 0 0 0 1

Total # of neighbors = 12296
Ave neighs/atom = 3.074
Ave special neighs/atom = 5.925
Neighbor list builds = 42
Dangerous builds = 0
shell          head -n 2 Temp.txt | tail -n 1 >> Tempfile.txt
shell          head -n 2 Bond.txt | tail -n 1 >> Bondfile.txt
next           myTempStr
next           myBondStr
if "${myBond} <= 0" then "jump imdinput.txt nobonds"
jump           imdinput.txt loop2here

# specifies the run length in timesteps
run            2000
WARNING: Use special bonds = 0,1,1 with bond style fene (../bond_fene.cpp:188)
Memory usage per processor = 5.5837 Mbytes
Step Temp E_pair E_mol TotEng Press 
  490000    1.0119738   0.19337619    20.593501    22.304458   0.32470063 
  490100   0.99421334   0.19116051    20.604702     22.28681   0.34694841 
  490200   0.98857723   0.18972685    20.598524    22.270746   0.45875542 
  490300   0.99080968   0.18493643    20.592711     22.26349   0.32361553 
  490400    1.0089329   0.18172373    20.596288    22.291033   0.61178484 
  490500   0.99121312   0.18339923    20.609286    22.279133   0.29316026 
  490600   0.98184638    0.1865197    20.611471    22.270392   0.29796423 
  490700   0.99311983   0.19059125    20.599899    22.279798   0.15495174 
  490800    1.0041743   0.19075112    20.587184     22.28382   0.25671206 
  490900   0.99604948   0.19100571    20.600231    22.284938   0.30258628 
  491000    1.0095793   0.18838959    20.589327    22.291707   0.21900963 
  491100   0.99315641   0.18620924     20.60134    22.276911   0.41278321 
  491200   0.99993261    0.1858426    20.588404     22.27377   0.19729452 
  491300   0.99143645   0.18336519    20.611833    22.281981   0.19935212 
  491400   0.99327424    0.1845912    20.586315    22.260446   0.44330764 
  491500    1.0025623   0.18462996    20.590203    22.278301   0.37514106 
  491600    1.0090053   0.18428716    20.596647    22.294063   0.46429943 
  491700    1.0035457   0.18881995    20.604945    22.298708   0.30971491 
  491800   0.99915097   0.19147569    20.628814    22.318641   0.35325846 
  491900    1.0123729   0.19275146    20.603867    22.314798   0.18713146 
  492000    1.0098899   0.19332847    20.611406    22.319191   0.55559953 
Loop time of 0.641233 on 4 procs (4 MPI x 1 OpenMP) for 2000 steps with 4000 atoms

Pair  time (%) = 0.171708 (26.7778)
Bond  time (%) = 0.0615718 (9.60209)
Neigh time (%) = 0.0363396 (5.66715)
Comm  time (%) = 0.163475 (25.4939)
Outpt time (%) = 0.000991404 (0.154609)
Other time (%) = 0.207147 (32.3044)

Nlocal:    1000 ave 1047 max 971 min
Histogram: 2 0 0 0 1 0 0 0 0 1
Nghost:    1076.75 ave 1129 max 1038 min
Histogram: 1 1 0 0 0 1 0 0 0 1
Neighs:    3087.5 ave 3381 max 2914 min
Histogram: 1 0 2 0 0 0 0 0 0 1

Total # of neighbors = 12350
Ave neighs/atom = 3.0875
Ave special neighs/atom = 5.925
Neighbor list builds = 43
Dangerous builds = 0
shell          head -n 2 Temp.txt | tail -n 1 >> Tempfile.txt
shell          head -n 2 Bond.txt | tail -n 1 >> Bondfile.txt
next           myTempStr
next           myBondStr
if "${myBond} <= 0" then "jump imdinput.txt nobonds"
jump           imdinput.txt loop2here

# specifies the run length in timesteps
run            2000
WARNING: Use special bonds = 0,1,1 with bond style fene (../bond_fene.cpp:188)
Memory usage per processor = 5.58785 Mbytes
Step Temp E_pair E_mol TotEng Press 
  492000    1.0098899   0.19332847    20.611406    22.319191   0.55559953 
  492100    1.0013392   0.19310783    20.618479    22.313221   0.30255001 
  492200    1.0205422   0.19134285    20.596437     22.31821   0.27086584 
  492300    1.0114172   0.18821822    20.603602    22.308567   0.46910796 
  492400    1.0106933   0.18762915    20.611046    22.314336   0.22602324 
  492500    1.0105993   0.18593011    20.610297    22.311747   0.31415178 
  492600    1.0056521   0.18499005     20.61509    22.308182   0.26083395 
  492700     1.020828   0.18378686    20.597073    22.311719   0.41118099 
  492800    1.0122309   0.18504579     20.59963    22.302643  0.070270556 
  492900    1.0189879   0.18689131    20.601861    22.316852   0.58525001 
  493000    1.0007667   0.19095094    20.625775    22.317501   0.23799314 
  493100    1.0138338    0.1914701    20.603897    22.315738   0.45577889 
  493200    1.0199284   0.18931486    20.594832    22.313657   0.38126654 
  493300    1.0208075   0.18432524    20.604774    22.319928   0.45126159 
  493400    1.0332523    0.1808278    20.593193    22.323511   0.41898847 
  493500    1.0240252   0.18331594    20.612595    22.331565   0.25241221 
  493600    1.0361975   0.18664656    20.581473    22.322027   0.24991005 
  493700    1.0155333   0.18836032    20.595043    22.306323   0.73049546 
  493800    1.0145483   0.19038221    20.600256     22.31208  0.051158867 
  493900    1.0092415   0.19075554    20.605202    22.309441   0.34106681 
  494000    1.0234081   0.19266405    20.593403    22.320796   0.39026288 
Loop time of 0.646215 on 4 procs (4 MPI x 1 OpenMP) for 2000 steps with 4000 atoms

Pair  time (%) = 0.172481 (26.6909)
Bond  time (%) = 0.0620058 (9.59523)
Neigh time (%) = 0.0366716 (5.67484)
Comm  time (%) = 0.163664 (25.3266)
Outpt time (%) = 0.00109744 (0.169826)
Other time (%) = 0.210295 (32.5426)

Nlocal:    1000 ave 1042 max 975 min
Histogram: 1 1 0 1 0 0 0 0 0 1
Nghost:    1040.5 ave 1089 max 1009 min
Histogram: 1 1 0 0 1 0 0 0 0 1
Neighs:    3099.25 ave 3430 max 2925 min
Histogram: 1 2 0 0 0 0 0 0 0 1

Total # of neighbors = 12397
Ave neighs/atom = 3.09925
Ave special neighs/atom = 5.925
Neighbor list builds = 43
Dangerous builds = 0
shell          head -n 2 Temp.txt | tail -n 1 >> Tempfile.txt
shell          head -n 2 Bond.txt | tail -n 1 >> Bondfile.txt
next           myTempStr
next           myBondStr
if "${myBond} <= 0" then "jump imdinput.txt nobonds"
jump           imdinput.txt loop2here

# specifies the run length in timesteps
run            2000
WARNING: Use special bonds = 0,1,1 with bond style fene (../bond_fene.cpp:188)
Memory usage per processor = 5.58834 Mbytes
Step Temp E_pair E_mol TotEng Press 
  494000    1.0234081   0.19266405    20.593403    22.320796   0.39026288 
  494100    1.0135669   0.19262077      20.5926    22.305191   0.29819969 
  494200    1.0130655   0.18913837    20.598976    22.307333   0.46350882 
  494300    1.0107926   0.18568348    20.580231    22.281724   0.30626866 
  494400    1.0295802   0.18994598    20.562574    22.296504   0.27237255 
  494500   0.99402853   0.19190227    20.590897    22.273469   0.18318558 
  494600    1.0026687   0.19597232    20.577374    22.276974   0.10704865 
  494700   0.99585755   0.19803063    20.578641    22.270085   0.58462199 
  494800   0.98533921   0.19762387    20.597745    22.273008   0.40601587 
  494900    0.9948848   0.19358737    20.591911    22.277452   0.46650179 
  495000    1.0030795    0.1922632    20.577943    22.274449   0.44546331 
  495100   0.99256924   0.19590411    20.594033    22.278419   0.30498899 
  495200   0.99098301   0.19766073    20.607096    22.290859   0.29363409 
  495300    1.0053649   0.20097514    20.595146    22.303791   0.28866474 
  495400    1.0006649    0.2020041    20.597077    22.299703   0.48902004 
  495500    1.0021143   0.20099709    20.609639    22.313431   0.41325753 
  495600   0.99945138   0.19909241    20.593313    22.291208   0.32388271 
  495700   0.99256954   0.19591198    20.603393    22.287787   0.14482868 
  495800   0.99475062   0.19416779    20.594352    22.280272    0.4438859 
  495900    1.0041809   0.19578675    20.586503    22.288185   0.30215506 
  496000    1.0051009    0.1914518    20.590466    22.289192   0.16964609 
Loop time of 0.639784 on 4 procs (4 MPI x 1 OpenMP) for 2000 steps with 4000 atoms

Pair  time (%) = 0.173188 (27.0698)
Bond  time (%) = 0.0619961 (9.69016)
Neigh time (%) = 0.0351685 (5.49694)
Comm  time (%) = 0.160421 (25.0742)
Outpt time (%) = 0.00103325 (0.161499)
Other time (%) = 0.207977 (32.5074)

Nlocal:    1000 ave 1006 max 985 min
Histogram: 1 0 0 0 0 0 0 0 1 2
Nghost:    1064.25 ave 1080 max 1042 min
Histogram: 1 0 0 0 0 1 0 1 0 1
Neighs:    3102.75 ave 3390 max 2904 min
Histogram: 1 0 1 1 0 0 0 0 0 1

Total # of neighbors = 12411
Ave neighs/atom = 3.10275
Ave special neighs/atom = 5.925
Neighbor list builds = 42
Dangerous builds = 0
shell          head -n 2 Temp.txt | tail -n 1 >> Tempfile.txt
shell          head -n 2 Bond.txt | tail -n 1 >> Bondfile.txt
next           myTempStr
next           myBondStr
if "${myBond} <= 0" then "jump imdinput.txt nobonds"
jump           imdinput.txt loop2here

# specifies the run length in timesteps
run            2000
WARNING: Use special bonds = 0,1,1 with bond style fene (../bond_fene.cpp:188)
Memory usage per processor = 5.57882 Mbytes
Step Temp E_pair E_mol TotEng Press 
  496000    1.0051009    0.1914518    20.590466    22.289192   0.16964609 
  496100   0.98925455   0.18805635    20.612355    22.283922   0.26249614 
  496200    1.0023764   0.18835722    20.604604     22.29615   0.51698537 
  496300     1.001689   0.19123748    20.605225     22.29862    0.2216413 
  496400    1.0010536    0.1948397    20.581659    22.277704    0.3301879 
  496500   0.98860608   0.19646392    20.591808     22.27081   0.35363513 
  496600    1.0030561   0.19512367    20.572302    22.271633   0.28183444 
  496700   0.97871648   0.19834276    20.610942    22.276992   0.17248434 
  496800    1.0005385   0.19729905    20.592785    22.290517   0.38304923 
  496900    0.9980303   0.19466957    20.586551    22.277892   0.24759921 
  497000   0.98331814   0.19034736    20.606958    22.271914    0.1262732 
  497100   0.99896219    0.1873267    20.575824     22.26122   0.44339412 
  497200   0.97426242   0.18692853    20.614197    22.262154   0.15729288 
  497300   0.98293586   0.18900447    20.598993    22.262032   0.41035209 
  497400   0.97613771   0.18995618    20.593558    22.247354   0.25361878 
  497500   0.98674092   0.18826808    20.580184    22.248194    0.2644241 
  497600    0.9924401   0.18691754    20.608266    22.283472    0.3291346 
  497700   0.99974527   0.19095067    20.598146     22.28834   0.20461342 
  497800    1.0069575   0.18929742    20.598151    22.297507   0.11074295 
  497900    1.0165858   0.18881199    20.597352    22.310662   0.38591478 
  498000    1.0309053   0.18949208    20.585658    22.321121     0.554259 
Loop time of 0.629942 on 4 procs (4 MPI x 1 OpenMP) for 2000 steps with 4000 atoms

Pair  time (%) = 0.173649 (27.5658)
Bond  time (%) = 0.0626137 (9.9396)
Neigh time (%) = 0.0346226 (5.49616)
Comm  time (%) = 0.151953 (24.1218)
Outpt time (%) = 0.00104994 (0.166672)
Other time (%) = 0.206054 (32.71)

Nlocal:    1000 ave 1019 max 973 min
Histogram: 1 0 0 0 1 0 0 0 1 1
Nghost:    1056.25 ave 1085 max 1037 min
Histogram: 1 1 0 0 1 0 0 0 0 1
Neighs:    3108.75 ave 3228 max 2936 min
Histogram: 1 0 0 0 0 1 0 1 0 1

Total # of neighbors = 12435
Ave neighs/atom = 3.10875
Ave special neighs/atom = 5.925
Neighbor list builds = 42
Dangerous builds = 0
shell          head -n 2 Temp.txt | tail -n 1 >> Tempfile.txt
shell          head -n 2 Bond.txt | tail -n 1 >> Bondfile.txt
next           myTempStr
next           myBondStr
if "${myBond} <= 0" then "jump imdinput.txt nobonds"
jump           imdinput.txt loop2here

# specifies the run length in timesteps
run            2000
WARNING: Use special bonds = 0,1,1 with bond style fene (../bond_fene.cpp:188)
Memory usage per processor = 5.58175 Mbytes
Step Temp E_pair E_mol TotEng Press 
  498000    1.0309053   0.18949208    20.585658    22.321121     0.554259 
  498100    1.0115543   0.19071903     20.59957    22.307241   0.34829452 
  498200     1.006103   0.19204362    20.596196    22.297017   0.49886523 
  498300    1.0142961   0.19152053    20.579124    22.291709   0.35643042 
  498400    1.0041153   0.19037721    20.604407    22.300581    0.3212101 
  498500    1.0090243   0.18884268     20.58516    22.287161   0.28287614 
  498600   0.98790036   0.18986614    20.606893    22.278239   0.12646052 
  498700     1.005516    0.1889407    20.588637    22.285475   0.36802004 
  498800    1.0041297   0.18979639     20.59072    22.286335   0.31239769 
  498900    1.0039789   0.18957002    20.597227    22.292389   0.53492447 
  499000   0.99859972   0.19184556     20.60836     22.29773    0.1240209 
  499100    1.0089238   0.18838849    20.596393    22.297789   0.53771607 
  499200    1.0096015    0.1906679    20.597842    22.302534  0.031192549 
  499300    1.0105564   0.19137096    20.601388    22.308215   0.39995029 
  499400   0.99689042   0.19194747    20.599239    22.286148   0.33162704 
  499500   0.99025661   0.18806884    20.590008     22.26309   0.27464815 
  499600   0.98242389   0.18841145    20.601827    22.263506   0.28492911 
  499700   0.98871888    0.1908399    20.584921    22.258469   0.58105046 
  499800   0.97107437   0.19409022    20.591455    22.241792   0.33255762 
  499900    0.9693662   0.19047181    20.600115    22.244273   0.34632008 
  500000   0.98234606    0.1889189    20.579829    22.241898   0.35625317 
Loop time of 0.63083 on 4 procs (4 MPI x 1 OpenMP) for 2000 steps with 4000 atoms

Pair  time (%) = 0.173008 (27.4255)
Bond  time (%) = 0.0612017 (9.70178)
Neigh time (%) = 0.0347343 (5.50613)
Comm  time (%) = 0.156476 (24.8048)
Outpt time (%) = 0.000951111 (0.150772)
Other time (%) = 0.204458 (32.411)

Nlocal:    1000 ave 1017 max 970 min
Histogram: 1 0 0 0 0 1 0 0 0 2
Nghost:    1051.25 ave 1071 max 1035 min
Histogram: 1 1 0 0 0 0 1 0 0 1
Neighs:    3052 ave 3149 max 2797 min
Histogram: 1 0 0 0 0 0 0 0 0 3

Total # of neighbors = 12208
Ave neighs/atom = 3.052
Ave special neighs/atom = 5.925
Neighbor list builds = 42
Dangerous builds = 0
shell          head -n 2 Temp.txt | tail -n 1 >> Tempfile.txt
shell          head -n 2 Bond.txt | tail -n 1 >> Bondfile.txt
next           myTempStr
next           myBondStr
if "${myBond} <= 0" then "jump imdinput.txt nobonds"
jump           imdinput.txt loop2here

# specifies the run length in timesteps
run            2000
WARNING: Use special bonds = 0,1,1 with bond style fene (../bond_fene.cpp:188)
Memory usage per processor = 5.58126 Mbytes
Step Temp E_pair E_mol TotEng Press 
  500000   0.98234606    0.1889189    20.579829    22.241898   0.35625317 
  500100   0.96915311   0.18656318    20.592323    22.232253  0.085531985 
  500200   0.97528154    0.1882291    20.572885     22.22367   0.51459474 
  500300   0.96969697   0.18646046    20.585756    22.226398   0.33349046 
  500400   0.97049813   0.18724605    20.577574    22.220204   0.46786741 
  500500   0.96449939   0.19056478    20.568901    22.205853   0.36012308 
  500600    0.9579164   0.19119283    20.567201     22.19491    0.3969087 
  500700   0.96751734   0.19017311    20.581994     22.22308   0.15028794 
  500800   0.98265097    0.1901314    20.575761      22.2395   0.47350055 
  500900   0.96785785   0.19362184    20.585686    22.230732   0.43002624 
  501000   0.96646416   0.19501294    20.589472    22.233819    0.3344307 
  501100   0.97707316   0.19535488    20.587089    22.247687    0.3166765 
  501200   0.99244243   0.19557206    20.562191    22.246055   0.30446482 
  501300   0.97904236   0.19571478    20.590852    22.254763   0.56619553 
  501400   0.97264629   0.19190823    20.578985    22.229498   0.46995365 
  501500   0.98298301   0.19246516    20.590992    22.257563   0.11541699 
  501600   0.98703457    0.1928591    20.602472    22.275512   0.27986401 
  501700   0.98601914   0.19335266    20.591024    22.263035   0.49331136 
  501800   0.99340028   0.19496608    20.584605    22.269299   0.50559229 
  501900   0.98518678   0.19881426    20.602284    22.278509   0.22378805 
  502000   0.99155243   0.19553908    20.587062    22.269558   0.48677528 
Loop time of 0.631047 on 4 procs (4 MPI x 1 OpenMP) for 2000 steps with 4000 atoms

Pair  time (%) = 0.174944 (27.7228)
Bond  time (%) = 0.0620326 (9.83011)
Neigh time (%) = 0.0327824 (5.19491)
Comm  time (%) = 0.152097 (24.1023)
Outpt time (%) = 0.00108755 (0.17234)
Other time (%) = 0.208104 (32.9775)

Nlocal:    1000 ave 1025 max 953 min
Histogram: 1 0 0 0 0 0 0 1 1 1
Nghost:    1088.5 ave 1119 max 1068 min
Histogram: 1 0 1 1 0 0 0 0 0 1
Neighs:    3084.5 ave 3189 max 2871 min
Histogram: 1 0 0 0 0 0 0 1 0 2

Total # of neighbors = 12338
Ave neighs/atom = 3.0845
Ave special neighs/atom = 5.925
Neighbor list builds = 40
Dangerous builds = 0
shell          head -n 2 Temp.txt | tail -n 1 >> Tempfile.txt
shell          head -n 2 Bond.txt | tail -n 1 >> Bondfile.txt
next           myTempStr
next           myBondStr
if "${myBond} <= 0" then "jump imdinput.txt nobonds"
jump           imdinput.txt loop2here

# specifies the run length in timesteps
run            2000
WARNING: Use special bonds = 0,1,1 with bond style fene (../bond_fene.cpp:188)
Memory usage per processor = 5.58321 Mbytes
Step Temp E_pair E_mol TotEng Press 
  502000   0.99155243   0.19553908    20.587062    22.269558   0.48677528 
  502100   0.99149587   0.19463546    20.593784    22.275291   0.29431786 
  502200    0.9834786    0.1959323    20.605145    22.275927   0.38212162 
  502300   0.99302709   0.19612674    20.599563    22.284858    0.4656177 
  502400   0.99466057    0.1968288    20.598785    22.287232   0.38348748 
  502500    1.0193722   0.19536545    20.585493    22.309534   0.33893437 
  502600   0.99944456   0.19754881    20.591708    22.288049   0.22203388 
  502700   0.99084109   0.20010168    20.595558     22.28155   0.33916002 
  502800    1.0037405   0.20234487    20.596053    22.303633   0.45122972 
  502900   0.99606041   0.20356562    20.601656    22.298939   0.53694752 
  503000    1.0028577   0.20289163    20.599275    22.306077   0.38615117 
  503100   0.98683664   0.20536675    20.612665    22.297917   0.11513704 
  503200   0.99018489   0.20582985    20.593762    22.284498   0.27862238 
  503300    0.9835169   0.20427163    20.613006    22.292184   0.37161501 
  503400    1.0061436   0.20115263    20.586379    22.296369   0.47112784 
  503500      1.00926   0.19954793    20.591902    22.304961   0.16116059 
  503600     1.009548   0.19620112    20.607589    22.317734   0.37382371 
  503700    1.0004156   0.19356123     20.61909    22.312899   0.19185141 
  503800    1.0083799   0.18849767    20.597891     22.29858    0.3841489 
  503900    1.0121112   0.18719824     20.61023    22.315216   0.22348655 
  504000    1.0210859   0.18620834    20.600647    22.318102   0.36048924 
Loop time of 0.619744 on 4 procs (4 MPI x 1 OpenMP) for 2000 steps with 4000 atoms

Pair  time (%) = 0.174429 (28.1454)
Bond  time (%) = 0.0608317 (9.81563)
Neigh time (%) = 0.0340362 (5.49197)
Comm  time (%) = 0.146362 (23.6165)
Outpt time (%) = 0.00115484 (0.186342)
Other time (%) = 0.20293 (32.7441)

Nlocal:    1000 ave 1050 max 949 min
Histogram: 1 0 0 0 1 1 0 0 0 1
Nghost:    1068 ave 1089 max 1039 min
Histogram: 1 0 0 0 1 0 0 0 1 1
Neighs:    3067.5 ave 3486 max 2676 min
Histogram: 1 0 0 0 1 1 0 0 0 1

Total # of neighbors = 12270
Ave neighs/atom = 3.0675
Ave special neighs/atom = 5.925
Neighbor list builds = 42
Dangerous builds = 0
shell          head -n 2 Temp.txt | tail -n 1 >> Tempfile.txt
shell          head -n 2 Bond.txt | tail -n 1 >> Bondfile.txt
next           myTempStr
next           myBondStr
if "${myBond} <= 0" then "jump imdinput.txt nobonds"
jump           imdinput.txt loop2here

# specifies the run length in timesteps
run            2000
WARNING: Use special bonds = 0,1,1 with bond style fene (../bond_fene.cpp:188)
Memory usage per processor = 5.58736 Mbytes
Step Temp E_pair E_mol TotEng Press 
  504000    1.0210859   0.18620834    20.600647    22.318102   0.36048924 
  504100    1.0039962    0.1866317    20.609162    22.301411   0.43644844 
  504200    1.0006034   0.18845479    20.601414    22.290399   0.31658318 
  504300   0.97305632   0.19405984    20.606473    22.259753   0.21728593 
  504400     1.000021   0.19551562    20.585185    22.280357   0.42218601 
  504500   0.98635745   0.19644212      20.6007    22.276308  0.093720346 
  504600    1.0070732   0.19813504    20.590856    22.299223   0.52208257 
  504700   0.98457654   0.20265288    20.623812     22.30296   0.41868349 
  504800    1.0051869   0.20838906    20.595312    22.311105   0.19520287 
  504900    1.0146421   0.20836088    20.594939    22.324882    0.5109056 
  505000    1.0065708   0.20639395    20.598552    22.314424   0.47938345 
  505100   0.99942772   0.19962346    20.609169    22.307559   0.17471548 
  505200    1.0026824   0.19817217    20.609829    22.311648   0.29457634 
  505300    1.0102156   0.19843337     20.59176    22.305138   0.46417147 
  505400    1.0143866   0.20168172    20.598346    22.321227   0.15830753 
  505500     1.017196   0.19954599    20.601123    22.326082   0.36942151 
  505600    1.0120677   0.19546776    20.599698    22.312887   0.40306448 
  505700    1.0208577   0.19386276    20.598934    22.323701    0.4079925 
  505800    1.0221624   0.19834286    20.610502    22.341705    0.1858072 
  505900    1.0247971   0.19920755     20.60143    22.337449   0.60775524 
  506000    1.0077679   0.19985183    20.611832    22.322958   0.15059215 
Loop time of 0.612852 on 4 procs (4 MPI x 1 OpenMP) for 2000 steps with 4000 atoms

Pair  time (%) = 0.172772 (28.1914)
Bond  time (%) = 0.0611573 (9.97912)
Neigh time (%) = 0.0335088 (5.46768)
Comm  time (%) = 0.142039 (23.1767)
Outpt time (%) = 0.00117612 (0.191909)
Other time (%) = 0.202199 (32.9931)

Nlocal:    1000 ave 1048 max 949 min
Histogram: 1 0 0 0 1 1 0 0 0 1
Nghost:    1070 ave 1096 max 1032 min
Histogram: 1 0 0 0 0 1 0 0 1 1
Neighs:    3081.75 ave 3317 max 2827 min
Histogram: 1 0 0 0 0 2 0 0 0 1

Total # of neighbors = 12327
Ave neighs/atom = 3.08175
Ave special neighs/atom = 5.925
Neighbor list builds = 42
Dangerous builds = 0
shell          head -n 2 Temp.txt | tail -n 1 >> Tempfile.txt
shell          head -n 2 Bond.txt | tail -n 1 >> Bondfile.txt
next           myTempStr
next           myBondStr
if "${myBond} <= 0" then "jump imdinput.txt nobonds"
jump           imdinput.txt loop2here

# specifies the run length in timesteps
run            2000
WARNING: Use special bonds = 0,1,1 with bond style fene (../bond_fene.cpp:188)
Memory usage per processor = 5.58858 Mbytes
Step Temp E_pair E_mol TotEng Press 
  506000    1.0077679   0.19985183    20.611832    22.322958   0.15059215 
  506100    1.0214437   0.20125555     20.61001    22.343048   0.52281482 
  506200    1.0260752   0.19567636    20.609066     22.34347   0.34088836 
  506300    1.0130651   0.19373287    20.617396    22.330346   0.21033717 
  506400    1.0064776   0.19212813    20.618277    22.319744   0.47002768 
  506500    1.0192689   0.18988253    20.600384    22.318788   0.37799618 
  506600    1.0112874   0.18868969    20.592212    22.297454   0.31331257 
  506700    1.0031758   0.18710043    20.591509    22.282997   0.28382541 
  506800    1.0006054    0.1896824    20.584951    22.275166   0.30212587 
  506900   0.99612956   0.19202568    20.597472    22.283318   0.23250952 
  507000   0.99759514   0.19124228    20.592612    22.279873   0.25250181 
  507100   0.99765279    0.1929357    20.584259    22.273299   0.27620535 
  507200   0.98292873   0.19522134    20.607537    22.276782   0.38993167 
  507300   0.99086836   0.19686375    20.601593    22.284388   0.48424404 
  507400    1.0017498   0.19453011    20.592121      22.2889   0.29299687 
  507500    1.0026089   0.19713036    20.573646    22.274313   0.41097436 
  507600    0.9866767   0.19749434     20.59961    22.276749    0.4526303 
  507700    1.0014949   0.19925845    20.593405    22.294531   0.14524614 
  507800   0.99183641   0.19788289    20.595872    22.281137   0.44922803 
  507900   0.99318949   0.19488547    20.598371    22.282668   0.21529012 
  508000    1.0001442   0.19007647    20.600695    22.290613   0.31973074 
Loop time of 0.609426 on 4 procs (4 MPI x 1 OpenMP) for 2000 steps with 4000 atoms

Pair  time (%) = 0.17059 (27.9919)
Bond  time (%) = 0.0604565 (9.92023)
Neigh time (%) = 0.0334498 (5.48873)
Comm  time (%) = 0.14396 (23.6223)
Outpt time (%) = 0.00119317 (0.195785)
Other time (%) = 0.199776 (32.7811)

Nlocal:    1000 ave 1066 max 952 min
Histogram: 1 0 1 0 1 0 0 0 0 1
Nghost:    1081.5 ave 1110 max 1028 min
Histogram: 1 0 0 0 0 0 0 1 1 1
Neighs:    3086 ave 3435 max 2836 min
Histogram: 1 0 0 2 0 0 0 0 0 1

Total # of neighbors = 12344
Ave neighs/atom = 3.086
Ave special neighs/atom = 5.925
Neighbor list builds = 42
Dangerous builds = 0
shell          head -n 2 Temp.txt | tail -n 1 >> Tempfile.txt
shell          head -n 2 Bond.txt | tail -n 1 >> Bondfile.txt
next           myTempStr
next           myBondStr
if "${myBond} <= 0" then "jump imdinput.txt nobonds"
jump           imdinput.txt loop2here

# specifies the run length in timesteps
run            2000
WARNING: Use special bonds = 0,1,1 with bond style fene (../bond_fene.cpp:188)
Memory usage per processor = 5.59347 Mbytes
Step Temp E_pair E_mol TotEng Press 
  508000    1.0001442   0.19007647    20.600695    22.290613   0.31973074 
  508100   0.99840085   0.18638362    20.603865    22.287475   0.26549737 
  508200    1.0012046   0.18996342    20.593972    22.285367   0.32933316 
  508300   0.98210362   0.19497804    20.604329    22.272094   0.35681057 
  508400   0.98422871   0.19626263    20.606323    22.278559   0.36950806 
  508500   0.97948683   0.19583845    20.604429     22.26913   0.19561015 
  508600   0.98639098   0.19428481    20.593529     22.26703   0.54069876 
  508700   0.98894015    0.1901919    20.611417    22.284648   0.22783006 
  508800   0.99993639   0.18523533     20.60933    22.294095   0.34686859 
  508900    1.0091533   0.18552617    20.608208    22.307086   0.37260808 
  509000    1.0059064   0.18774267    20.608265     22.30449   0.54212276 
  509100    1.0046871   0.18874858    20.620422    22.315825     0.102888 
  509200     1.021623   0.19032349    20.595675     22.31805   0.51249473 
  509300    1.0089876     0.190942    20.596255      22.3003   0.34601946 
  509400    1.0001655   0.19018883    20.599484    22.289546   0.43902252 
  509500   0.99345992   0.18812578    20.613917     22.29186   0.19775685 
  509600   0.99226199   0.19018637    20.606946    22.285153   0.29624347 
  509700    1.0018386   0.19613989    20.598433    22.296955   0.36836894 
  509800   0.99734302   0.20246527    20.596996    22.295102    0.5628423 
  509900   0.99374806   0.20651869    20.604695    22.301463   0.31111395 
  510000   0.97099357   0.20653352    20.625275    22.287935  0.043497565 
Loop time of 0.610233 on 4 procs (4 MPI x 1 OpenMP) for 2000 steps with 4000 atoms

Pair  time (%) = 0.172498 (28.2676)
Bond  time (%) = 0.0620294 (10.1649)
Neigh time (%) = 0.0327958 (5.37432)
Comm  time (%) = 0.139885 (22.9231)
Outpt time (%) = 0.00118262 (0.193798)
Other time (%) = 0.201842 (33.0763)

Nlocal:    1000 ave 1030 max 950 min
Histogram: 1 0 0 0 0 0 1 0 1 1
Nghost:    1063.75 ave 1103 max 1044 min
Histogram: 2 0 0 1 0 0 0 0 0 1
Neighs:    3080.25 ave 3277 max 2777 min
Histogram: 1 0 0 0 0 0 1 0 1 1

Total # of neighbors = 12321
Ave neighs/atom = 3.08025
Ave special neighs/atom = 5.925
Neighbor list builds = 41
Dangerous builds = 0
shell          head -n 2 Temp.txt | tail -n 1 >> Tempfile.txt
shell          head -n 2 Bond.txt | tail -n 1 >> Bondfile.txt
next           myTempStr
next           myBondStr
if "${myBond} <= 0" then "jump imdinput.txt nobonds"
jump           imdinput.txt loop2here

# specifies the run length in timesteps
run            2000
WARNING: Use special bonds = 0,1,1 with bond style fene (../bond_fene.cpp:188)
Memory usage per processor = 5.58468 Mbytes
Step Temp E_pair E_mol TotEng Press 
  510000   0.97099357   0.20653352    20.625275    22.287935  0.043497565 
  510100   0.97864704   0.20518627    20.610174    22.282963   0.11622877 
  510200    1.0062448   0.20044217     20.58974    22.299172   0.55695399 
  510300   0.99515712   0.19991091    20.607383    22.299656   0.29978243 
  510400   0.98794773    0.1980019    20.615336    22.294889   0.36651746 
  510500   0.98713072   0.19734229    20.611849    22.289517   0.31411418 
  510600   0.99932041   0.19365861    20.611719    22.303983   0.43416386 
  510700   0.99653555   0.19324061    20.604688    22.292359   0.46605537 
  510800   0.99933843   0.19559368    20.594346    22.288573   0.28158114 
  510900    0.9892296   0.19432136     20.60812    22.285915   0.21412598 
  511000    1.0105028   0.19283744    20.592704    22.300917   0.38700092 
  511100     1.007531   0.19294309    20.605007    22.308868   0.40652038 
  511200    1.0106293   0.19270234    20.589365    22.297632   0.38924353 
  511300   0.99650038   0.19236096     20.60431    22.291048   0.33885903 
  511400   0.99807264   0.19431925    20.582423    22.273477   0.41591594 
  511500    0.9929437     0.194605    20.596016    22.279664   0.28452292 
  511600    1.0019201   0.19144156    20.594348    22.288294   0.29575584 
  511700    1.0190331    0.1926507    20.598205    22.319023   0.19740441 
  511800    1.0034548    0.1938029    20.617963    22.316572   0.29022306 
  511900    1.0130319   0.19375388    20.605504    22.318426   0.47724202 
  512000    1.0146839   0.18946142    20.586423     22.29753   0.45918246 
Loop time of 0.627391 on 4 procs (4 MPI x 1 OpenMP) for 2000 steps with 4000 atoms

Pair  time (%) = 0.172785 (27.5402)
Bond  time (%) = 0.0590481 (9.4117)
Neigh time (%) = 0.0350347 (5.5842)
Comm  time (%) = 0.154888 (24.6876)
Outpt time (%) = 0.00118887 (0.189495)
Other time (%) = 0.204446 (32.5868)

Nlocal:    1000 ave 1056 max 935 min
Histogram: 1 0 0 0 0 2 0 0 0 1
Nghost:    1060.75 ave 1115 max 999 min
Histogram: 1 0 0 1 0 0 0 1 0 1
Neighs:    3058 ave 3306 max 2683 min
Histogram: 1 0 0 0 0 0 1 1 0 1

Total # of neighbors = 12232
Ave neighs/atom = 3.058
Ave special neighs/atom = 5.925
Neighbor list builds = 42
Dangerous builds = 0
shell          head -n 2 Temp.txt | tail -n 1 >> Tempfile.txt
shell          head -n 2 Bond.txt | tail -n 1 >> Bondfile.txt
next           myTempStr
next           myBondStr
if "${myBond} <= 0" then "jump imdinput.txt nobonds"
jump           imdinput.txt loop2here

# specifies the run length in timesteps
run            2000
WARNING: Use special bonds = 0,1,1 with bond style fene (../bond_fene.cpp:188)
Memory usage per processor = 5.59005 Mbytes
Step Temp E_pair E_mol TotEng Press 
  512000    1.0146839   0.18946142    20.586423     22.29753   0.45918246 
  512100   0.99750943   0.18844173    20.589881    22.274213   0.17897911 
  512200    1.0113441   0.18740198    20.581544    22.285583    0.4564525 
  512300    1.0022146   0.18604495     20.59616    22.285151   0.18689307 
  512400     1.014927   0.18519753    20.581167    22.288374   0.27162716 
  512500   0.99908413   0.18229859    20.590542    22.271092   0.66223684 
  512600    1.0060883   0.18434199    20.580474    22.273571   0.24129141 
  512700   0.99370334     0.184754    20.608238    22.283174   0.33645671 
  512800     1.006906   0.18450629    20.599166    22.293654   0.27722941 
  512900    1.0207749   0.18454921    20.583119    22.298447   0.13886269 
  513000    1.0120615   0.18452451    20.612833    22.315071    0.6139202 
  513100   0.99983821    0.1826999    20.623004    22.305086   0.02492139 
  513200    1.0139367   0.17966529    20.588637    22.288827   0.66315201 
  513300    1.0149534   0.17669822    20.592047    22.290795   0.19436525 
  513400    1.0067557   0.17458783    20.596649    22.280993   0.25129986 
  513500    1.0024613   0.17474828    20.589125    22.267189   0.26366682 
  513600   0.99522349   0.17552057    20.600596    22.268579   0.14496935 
  513700    1.0044074   0.17676069    20.585645     22.26864   0.55579082 
  513800   0.99434216   0.17561276    20.598488    22.265241   0.23758074 
  513900    1.0060202   0.18164914    20.587197    22.277499   0.28616011 
  514000   0.99037684   0.19266224    20.591786    22.269642   0.22777113 
Loop time of 0.626611 on 4 procs (4 MPI x 1 OpenMP) for 2000 steps with 4000 atoms

Pair  time (%) = 0.170882 (27.2708)
Bond  time (%) = 0.0604703 (9.65037)
Neigh time (%) = 0.034781 (5.55066)
Comm  time (%) = 0.151734 (24.2151)
Outpt time (%) = 0.00123179 (0.19658)
Other time (%) = 0.207512 (33.1165)

Nlocal:    1000 ave 1033 max 962 min
Histogram: 1 1 0 0 0 0 0 0 0 2
Nghost:    1045.25 ave 1082 max 1011 min
Histogram: 1 1 0 0 0 0 0 1 0 1
Neighs:    3100 ave 3337 max 2870 min
Histogram: 1 0 0 1 0 0 1 0 0 1

Total # of neighbors = 12400
Ave neighs/atom = 3.1
Ave special neighs/atom = 5.925
Neighbor list builds = 42
Dangerous builds = 0
shell          head -n 2 Temp.txt | tail -n 1 >> Tempfile.txt
shell          head -n 2 Bond.txt | tail -n 1 >> Bondfile.txt
next           myTempStr
next           myBondStr
if "${myBond} <= 0" then "jump imdinput.txt nobonds"
jump           imdinput.txt loop2here

# specifies the run length in timesteps
run            2000
WARNING: Use special bonds = 0,1,1 with bond style fene (../bond_fene.cpp:188)
Memory usage per processor = 5.58663 Mbytes
Step Temp E_pair E_mol TotEng Press 
  514000   0.99037684   0.19266224    20.591786    22.269642   0.22777113 
  514100   0.98718031   0.19652264    20.584829    22.261752   0.17401445 
  514200    1.0106566   0.19725561    20.566931    22.279793   0.43620631 
  514300   0.99918902   0.19742519    20.579689    22.275523   0.39231698 
  514400   0.99642822    0.1952209    20.592585    22.282075   0.32182953 
  514500   0.99763416   0.19080331    20.593402    22.280282   0.11417861 
  514600    1.0125081   0.18429321    20.573425      22.2761   0.19202129 
  514700    0.9863566   0.18388809    20.581103    22.244156   0.28381903 
  514800    0.9980112   0.18405918    20.576101    22.256803   0.17412129 
  514900   0.98812235   0.18257163    20.584512    22.248897   0.28161971 
  515000   0.99825911   0.18440157    20.572102    22.253518   0.44097912 
  515100   0.99834991   0.18741174    20.581224    22.265786   0.56997411 
  515200   0.99223636   0.19338445    20.593084    22.274451   0.36622313 
  515300   0.97838264   0.19392147    20.598861     22.25999   0.30040949 
  515400   0.99477435    0.1899109    20.581692    22.263391   0.31563085 
  515500     1.000538   0.18844777    20.583227    22.272106    0.4238269 
  515600    1.0021225   0.18902093    20.577769    22.269598    0.3424415 
  515700    0.9920163      0.18887    20.593177    22.269699   0.39206117 
  515800   0.97517784   0.18894822    20.603007    22.254356   0.16865504 
  515900    0.9888549   0.18510145     20.59412    22.262133   0.45990366 
  516000   0.97952651   0.18360018    20.610622    22.263144   0.31458768 
Loop time of 0.62668 on 4 procs (4 MPI x 1 OpenMP) for 2000 steps with 4000 atoms

Pair  time (%) = 0.173006 (27.6068)
Bond  time (%) = 0.0599701 (9.5695)
Neigh time (%) = 0.0355323 (5.66993)
Comm  time (%) = 0.150025 (23.9396)
Outpt time (%) = 0.00110012 (0.175548)
Other time (%) = 0.207046 (33.0386)

Nlocal:    1000 ave 1043 max 917 min
Histogram: 1 0 0 0 0 0 0 1 0 2
Nghost:    1046.25 ave 1080 max 1019 min
Histogram: 1 0 1 0 0 1 0 0 0 1
Neighs:    3069 ave 3425 max 2587 min
Histogram: 1 0 0 0 0 1 0 1 0 1

Total # of neighbors = 12276
Ave neighs/atom = 3.069
Ave special neighs/atom = 5.925
Neighbor list builds = 43
Dangerous builds = 0
shell          head -n 2 Temp.txt | tail -n 1 >> Tempfile.txt
shell          head -n 2 Bond.txt | tail -n 1 >> Bondfile.txt
next           myTempStr
next           myBondStr
if "${myBond} <= 0" then "jump imdinput.txt nobonds"
jump           imdinput.txt loop2here

# specifies the run length in timesteps
run            2000
WARNING: Use special bonds = 0,1,1 with bond style fene (../bond_fene.cpp:188)
Memory usage per processor = 5.5881 Mbytes
Step Temp E_pair E_mol TotEng Press 
  516000   0.97952651   0.18360018    20.610622    22.263144   0.31458768 
  516100   0.99576146   0.18434668    20.596294     22.27391 0.0030688973 
  516200   0.98534759    0.1832893    20.589663    22.250604   0.50628624 
  516300   0.97714542   0.18410317    20.592379    22.241834   0.39737168 
  516400   0.98505961   0.18843168    20.589179    22.254831   0.32586574 
  516500   0.99237085   0.19175767    20.585808     22.26575   0.37363879 
  516600    1.0011824   0.19401295    20.587734    22.283145   0.12008085 
  516700   0.99611089   0.19082667    20.592378    22.276997   0.32909496 
  516800    1.0122927   0.19020755    20.578098    22.286366   0.55858727 
  516900   0.99127305   0.18824261    20.587871    22.262651   0.27101252 
  517000   0.98669527   0.18881303    20.588376    22.256862    0.2184539 
  517100   0.98969582   0.18944521     20.59915    22.272768  0.057182464 
  517200   0.99314167   0.19271714    20.594605    22.276663   0.23320198 
  517300   0.99190823    0.1917536    20.595819    22.275063   0.44139342 
  517400   0.99335536   0.19241713    20.591308    22.273386   0.45702769 
  517500   0.99450018   0.19466386    20.603279     22.28932  0.045401025 
  517600   0.99092186   0.19420968    20.609036    22.289257   0.34253788 
  517700    1.0025812   0.19217003    20.584874     22.28054   0.41154712 
  517800    1.0011604   0.19018083    20.598757    22.290303   0.27957839 
  517900   0.99014987   0.19124223     20.59543    22.271525   0.18891691 
  518000   0.99096782   0.19713329    20.588568    22.271781   0.11999537 
Loop time of 0.616495 on 4 procs (4 MPI x 1 OpenMP) for 2000 steps with 4000 atoms

Pair  time (%) = 0.168205 (27.2842)
Bond  time (%) = 0.0582719 (9.45214)
Neigh time (%) = 0.0341877 (5.5455)
Comm  time (%) = 0.153731 (24.9363)
Outpt time (%) = 0.00111312 (0.180556)
Other time (%) = 0.200985 (32.6013)

Nlocal:    1000 ave 1051 max 919 min
Histogram: 1 0 0 0 0 1 0 0 1 1
Nghost:    1080.5 ave 1137 max 1046 min
Histogram: 1 0 2 0 0 0 0 0 0 1
Neighs:    3116.5 ave 3519 max 2758 min
Histogram: 1 0 1 0 0 0 1 0 0 1

Total # of neighbors = 12466
Ave neighs/atom = 3.1165
Ave special neighs/atom = 5.925
Neighbor list builds = 42
Dangerous builds = 0
shell          head -n 2 Temp.txt | tail -n 1 >> Tempfile.txt
shell          head -n 2 Bond.txt | tail -n 1 >> Bondfile.txt
next           myTempStr
next           myBondStr
if "${myBond} <= 0" then "jump imdinput.txt nobonds"
jump           imdinput.txt loop2here

# specifies the run length in timesteps
run            2000
WARNING: Use special bonds = 0,1,1 with bond style fene (../bond_fene.cpp:188)
Memory usage per processor = 5.58932 Mbytes
Step Temp E_pair E_mol TotEng Press 
  518000   0.99096782   0.19713329    20.588568    22.271781   0.11999537 
  518100    1.0020019    0.2002688    20.588463    22.291359   0.51533887 
  518200    1.0055207    0.2013975    20.596742    22.306044   0.40714489 
  518300    1.0123172   0.19511477    20.610031    22.323242   0.57699418 
  518400     1.016525   0.19114622    20.592272    22.307824   0.26394615 
  518500      1.01308   0.19041599    20.615301    22.324957   0.10493589 
  518600    1.0227297    0.1921654    20.607406    22.333282   0.14452334 
  518700    1.0271308   0.19194763    20.590151     22.32241   0.50264654 
  518800     1.008736   0.19357492    20.614617    22.320917   0.75743859 
  518900    1.0067037   0.19605119    20.601031     22.30676   0.23915224 
  519000   0.99240945   0.19903538     20.60662    22.293898   0.17495488 
  519100   0.99820451   0.19894138     20.58169    22.277564   0.18349046 
  519200   0.98880771   0.19506088     20.60637    22.284272   0.56094926 
  519300   0.99705089   0.19089722     20.60123     22.28733   0.55249254 
  519400    1.0004789   0.18871201    20.598366    22.287421   0.41309194 
  519500     1.000714     0.186508    20.598437    22.285641   0.35715061 
  519600   0.99166545   0.18775943    20.589139    22.264024   0.37989205 
  519700     1.008619   0.18901434     20.59234    22.293904   0.32938191 
  519800    1.0037202   0.19054876    20.590615    22.286367    0.3934768 
  519900    1.0016052   0.18913814    20.592461    22.283631    0.3111413 
  520000   0.98573453   0.19248643    20.582113    22.252832   0.25942403 
Loop time of 0.623129 on 4 procs (4 MPI x 1 OpenMP) for 2000 steps with 4000 atoms

Pair  time (%) = 0.172167 (27.6295)
Bond  time (%) = 0.0585807 (9.40106)
Neigh time (%) = 0.0340046 (5.45707)
Comm  time (%) = 0.152948 (24.5452)
Outpt time (%) = 0.00118476 (0.190131)
Other time (%) = 0.204243 (32.7771)

Nlocal:    1000 ave 1056 max 916 min
Histogram: 1 0 0 0 0 1 0 0 1 1
Nghost:    1072 ave 1113 max 1039 min
Histogram: 1 0 0 1 1 0 0 0 0 1
Neighs:    3077.25 ave 3453 max 2628 min
Histogram: 1 0 0 0 1 0 0 1 0 1

Total # of neighbors = 12309
Ave neighs/atom = 3.07725
Ave special neighs/atom = 5.925
Neighbor list builds = 41
Dangerous builds = 0
shell          head -n 2 Temp.txt | tail -n 1 >> Tempfile.txt
shell          head -n 2 Bond.txt | tail -n 1 >> Bondfile.txt
next           myTempStr
next           myBondStr
if "${myBond} <= 0" then "jump imdinput.txt nobonds"
jump           imdinput.txt loop2here

# specifies the run length in timesteps
run            2000
WARNING: Use special bonds = 0,1,1 with bond style fene (../bond_fene.cpp:188)
Memory usage per processor = 5.59054 Mbytes
Step Temp E_pair E_mol TotEng Press 
  520000   0.98573453   0.19248643    20.582113    22.252832   0.25942403 
  520100   0.98628638   0.19427123    20.575887    22.249218   0.18498582 
  520200    0.9898432   0.19664323    20.593562    22.274599   0.23391426 
  520300   0.99492835   0.19623934    20.595472    22.283731   0.33301563 
  520400    1.0132907   0.19547174    20.594732     22.30976   0.37687315 
  520500    1.0136853   0.19284517    20.586199    22.299192   0.29635032 
  520600    1.0113016   0.19237104    20.581389    22.290333   0.37048168 
  520700    1.0057313   0.19456001    20.590876    22.293656   0.26343356 
  520800   0.99703177   0.19650344    20.589748    22.281425   0.17183247 
  520900   0.98795859   0.19790574    20.588545    22.268018   0.57855022 
  521000   0.98510086   0.19837716    20.599621     22.27528  0.056416147 
  521100   0.99365427   0.19933843    20.598782    22.288229    0.6338477 
  521200   0.98158165   0.20336756    20.605307    22.280679   0.26242596 
  521300   0.98323549   0.20376322    20.601184    22.279432   0.53199958 
  521400   0.99133021   0.19919911    20.598425    22.284247   0.14538888 
  521500   0.99017838   0.19455589    20.603262    22.282714   0.24804086 
  521600    1.0024946   0.18950654    20.591485    22.284358   0.15787156 
  521700   0.99313247   0.18801686    20.619683    22.297026   0.32325548 
  521800   0.99476132   0.18764704    20.608209    22.287625   0.55454857 
  521900    1.0048687   0.18854157    20.595754    22.291222   0.17429486 
  522000    1.0021409   0.18791814    20.595916    22.286669   0.37038778 
Loop time of 0.617637 on 4 procs (4 MPI x 1 OpenMP) for 2000 steps with 4000 atoms

Pair  time (%) = 0.171984 (27.8454)
Bond  time (%) = 0.0582834 (9.43653)
Neigh time (%) = 0.0335944 (5.43919)
Comm  time (%) = 0.150303 (24.3353)
Outpt time (%) = 0.00116587 (0.188763)
Other time (%) = 0.202306 (32.7548)

Nlocal:    1000 ave 1043 max 940 min
Histogram: 1 0 0 0 0 1 0 1 0 1
Nghost:    1064.25 ave 1145 max 1003 min
Histogram: 1 0 1 0 1 0 0 0 0 1
Neighs:    3051.25 ave 3410 max 2573 min
Histogram: 1 0 0 0 0 1 0 1 0 1

Total # of neighbors = 12205
Ave neighs/atom = 3.05125
Ave special neighs/atom = 5.925
Neighbor list builds = 41
Dangerous builds = 0
shell          head -n 2 Temp.txt | tail -n 1 >> Tempfile.txt
shell          head -n 2 Bond.txt | tail -n 1 >> Bondfile.txt
next           myTempStr
next           myBondStr
if "${myBond} <= 0" then "jump imdinput.txt nobonds"
jump           imdinput.txt loop2here

# specifies the run length in timesteps
run            2000
WARNING: Use special bonds = 0,1,1 with bond style fene (../bond_fene.cpp:188)
Memory usage per processor = 5.58663 Mbytes
Step Temp E_pair E_mol TotEng Press 
  522000    1.0021409   0.18791814    20.595916    22.286669   0.37038778 
  522100   0.98651432    0.1864841    20.610646    22.276532    0.1767016 
  522200    1.0079744   0.18171363    20.588541    22.281839   0.18302285 
  522300    1.0256834   0.18351071     20.56711    22.288761   0.44784287 
  522400    1.0101109   0.18230206    20.607302    22.304392   0.36427587 
  522500    1.0225733   0.17822466     20.58223    22.293931   0.36239053 
  522600   0.99369731   0.17894834    20.599981    22.269102   0.13139686 
  522700    1.0044695   0.18142312    20.597456    22.285207   0.44177958 
  522800    1.0206376   0.18278475    20.590719    22.304078   0.31453406 
  522900   0.99072194   0.18375119    20.613914    22.283376   0.33270826 
  523000   0.99937915   0.18297184    20.597447    22.279113   0.42257643 
  523100    1.0084145    0.1854602    20.589193    22.286897   0.37686505 
  523200   0.99976007   0.18488748    20.611889    22.296042   0.27496656 
  523300    1.0005855   0.18681772    20.605279    22.292599   0.42419502 
  523400     1.009483   0.18737761    20.592136    22.293359   0.52465111 
  523500    1.0012338   0.18726399    20.595984    22.284723    0.2666664 
  523600    1.0034754   0.18827189      20.6013    22.294408   0.34807876 
  523700   0.99628831   0.19112856    20.597376    22.282564   0.23396389 
  523800    1.0049363   0.19033828    20.588702    22.286068   0.35673119 
  523900     0.997318   0.18986742    20.595499    22.280969   0.45688431 
  524000       1.0081   0.18462867    20.601632    22.298033  0.045785034 
Loop time of 0.608714 on 4 procs (4 MPI x 1 OpenMP) for 2000 steps with 4000 atoms

Pair  time (%) = 0.166819 (27.4052)
Bond  time (%) = 0.0599774 (9.85314)
Neigh time (%) = 0.032569 (5.35046)
Comm  time (%) = 0.144791 (23.7864)
Outpt time (%) = 0.00102532 (0.16844)
Other time (%) = 0.203531 (33.4363)

Nlocal:    1000 ave 1031 max 933 min
Histogram: 1 0 0 0 0 0 0 0 2 1
Nghost:    1077.5 ave 1124 max 1046 min
Histogram: 1 0 1 1 0 0 0 0 0 1
Neighs:    3046.75 ave 3290 max 2654 min
Histogram: 1 0 0 0 0 0 1 1 0 1

Total # of neighbors = 12187
Ave neighs/atom = 3.04675
Ave special neighs/atom = 5.925
Neighbor list builds = 41
Dangerous builds = 0
shell          head -n 2 Temp.txt | tail -n 1 >> Tempfile.txt
shell          head -n 2 Bond.txt | tail -n 1 >> Bondfile.txt
next           myTempStr
next           myBondStr
if "${myBond} <= 0" then "jump imdinput.txt nobonds"
jump           imdinput.txt loop2here

# specifies the run length in timesteps
run            2000
WARNING: Use special bonds = 0,1,1 with bond style fene (../bond_fene.cpp:188)
Memory usage per processor = 5.58468 Mbytes
Step Temp E_pair E_mol TotEng Press 
  524000       1.0081   0.18462867    20.601632    22.298033  0.045785034 
  524100    1.0086348   0.18154853    20.596311    22.290434   0.16481671 
  524200   0.98957623   0.18137091    20.626129    22.291493   0.29722946 
  524300   0.99716398   0.18387359    20.596887    22.276133   0.47253201 
  524400   0.99955986    0.1784414    20.598133    22.275539   0.46403494 
  524500    1.0043384   0.17877316    20.603703    22.288608   0.25512634 
  524600   0.99174221   0.18253407    20.612758    22.282533   0.29801597 
  524700    1.0023897   0.18337264    20.603996    22.290577   0.19258044 
  524800    1.0003164    0.1849527    20.606913    22.291965   0.27325175 
  524900     1.010268   0.18564806    20.589814    22.290485   0.38597573 
  525000   0.98903278   0.18686844    20.605327    22.275374   0.38287551 
  525100   0.99873131   0.19243692    20.598377    22.288536   0.10582926 
  525200   0.99703068   0.19765824    20.584899    22.277729   0.50441083 
  525300    0.9900617   0.20144208    20.600661    22.286825   0.37579086 
  525400   0.99884956   0.19850231    20.591492    22.287894   0.54385508 
  525500    1.0168733   0.19690924    20.574919    22.296757   0.21828979 
  525600    1.0039705   0.19758782    20.588615    22.291782   0.20762607 
  525700    1.0128546   0.19890514    20.568671    22.286478   0.24460018 
  525800    1.0025183   0.20310218    20.583592    22.290096   0.21057743 
  525900    1.0076286    0.2034974    20.574918     22.28948   0.27294544 
  526000    1.0028346   0.19918803    20.568319    22.271383   0.39078725 
Loop time of 0.612615 on 4 procs (4 MPI x 1 OpenMP) for 2000 steps with 4000 atoms

Pair  time (%) = 0.170674 (27.8599)
Bond  time (%) = 0.0601364 (9.81635)
Neigh time (%) = 0.033986 (5.5477)
Comm  time (%) = 0.142483 (23.2581)
Outpt time (%) = 0.000997543 (0.162834)
Other time (%) = 0.204338 (33.3551)

Nlocal:    1000 ave 1047 max 915 min
Histogram: 1 0 0 0 0 1 0 0 0 2
Nghost:    1068.5 ave 1088 max 1055 min
Histogram: 1 1 0 0 1 0 0 0 0 1
Neighs:    3104.75 ave 3386 max 2664 min
Histogram: 1 0 0 0 0 1 0 0 1 1

Total # of neighbors = 12419
Ave neighs/atom = 3.10475
Ave special neighs/atom = 5.925
Neighbor list builds = 42
Dangerous builds = 0
shell          head -n 2 Temp.txt | tail -n 1 >> Tempfile.txt
shell          head -n 2 Bond.txt | tail -n 1 >> Bondfile.txt
next           myTempStr
next           myBondStr
if "${myBond} <= 0" then "jump imdinput.txt nobonds"
jump           imdinput.txt loop2here

# specifies the run length in timesteps
run            2000
WARNING: Use special bonds = 0,1,1 with bond style fene (../bond_fene.cpp:188)
Memory usage per processor = 5.58956 Mbytes
Step Temp E_pair E_mol TotEng Press 
  526000    1.0028346   0.19918803    20.568319    22.271383   0.39078725 
  526100   0.98700028   0.19838932    20.580527    22.259047   0.40596669 
  526200   0.99535608   0.20086722    20.575516    22.269044   0.28487776 
  526300   0.99801498   0.20490058    20.582596    22.284145   0.18258201 
  526400    1.0159171   0.20191982    20.573455    22.298869   0.64901762 
  526500   0.99764908    0.2005645    20.592856     22.28952 0.0014949312 
  526600    1.0185529   0.19712973    20.583462    22.308039   0.31911478 
  526700    1.0268553    0.1959202    20.574107    22.309925   0.36012985 
  526800    1.0321947   0.19827512    20.576161    22.322342    0.2183835 
  526900    1.0215854    0.1986277    20.589448    22.320071   0.45913116 
  527000    1.0213757   0.19864616    20.594731    22.325058    0.1995837 
  527100    1.0103632   0.19705603    20.598318     22.31054   0.48439432 
  527200    1.0200873   0.19713735    20.598765    22.325651   0.47047602 
  527300    1.0204888   0.19604971    20.599975    22.326375   0.41679056 
  527400     1.024487   0.19593107     20.57313    22.305407   0.42902307 
  527500     1.006279   0.19913464    20.599565    22.307741  0.022959922 
  527600    1.0163745   0.19746839    20.589493    22.311142   0.41370995 
  527700    1.0125113    0.2000909    20.600218    22.318697   0.45222684 
  527800    1.0022939   0.19759361    20.590909    22.291567    0.2757747 
  527900   0.99904117    0.1968152    20.604892    22.299895   0.23243748 
  528000   0.99816373   0.19793406    20.605407    22.300212    0.1610147 
Loop time of 0.608139 on 4 procs (4 MPI x 1 OpenMP) for 2000 steps with 4000 atoms

Pair  time (%) = 0.171464 (28.1948)
Bond  time (%) = 0.0589848 (9.69924)
Neigh time (%) = 0.0344433 (5.66373)
Comm  time (%) = 0.142601 (23.4488)
Outpt time (%) = 0.000993788 (0.163415)
Other time (%) = 0.199652 (32.83)

Nlocal:    1000 ave 1034 max 921 min
Histogram: 1 0 0 0 0 0 0 0 1 2
Nghost:    1066.75 ave 1095 max 1051 min
Histogram: 2 0 0 1 0 0 0 0 0 1
Neighs:    3105 ave 3364 max 2636 min
Histogram: 1 0 0 0 0 0 1 0 0 2

Total # of neighbors = 12420
Ave neighs/atom = 3.105
Ave special neighs/atom = 5.925
Neighbor list builds = 43
Dangerous builds = 0
shell          head -n 2 Temp.txt | tail -n 1 >> Tempfile.txt
shell          head -n 2 Bond.txt | tail -n 1 >> Bondfile.txt
next           myTempStr
next           myBondStr
if "${myBond} <= 0" then "jump imdinput.txt nobonds"
jump           imdinput.txt loop2here

# specifies the run length in timesteps
run            2000
WARNING: Use special bonds = 0,1,1 with bond style fene (../bond_fene.cpp:188)
Memory usage per processor = 5.58492 Mbytes
Step Temp E_pair E_mol TotEng Press 
  528000   0.99816373   0.19793406    20.605407    22.300212    0.1610147 
  528100    1.0042902   0.19818305     20.59346    22.297701   0.41926408 
  528200    1.0063981   0.20267128    20.585943    22.297834   0.28970949 
  528300    1.0057771   0.20062773    20.589619    22.298536   0.40251055 
  528400    1.0122975   0.19865564    20.591433    22.308155   0.22983713 
  528500    1.0109643    0.1981413    20.589074    22.303283   0.23121786 
  528600    1.0015776   0.19777143    20.578852    22.278614   0.27288638 
  528700    1.0002837   0.19953911    20.590115    22.289704   0.14663512 
  528800   0.99954991   0.19809479     20.56698    22.264025   0.44343147 
  528900   0.98585737   0.19507179    20.594747    22.268236   0.24407668 
  529000    1.0126178    0.1932514    20.586218    22.298016   0.41974287 
  529100    1.0161322   0.19185607    20.582924    22.298597   0.24615962 
  529200    1.0027702   0.19282342    20.605066    22.301669   0.15406769 
  529300    1.0181858   0.19071562    20.582832    22.300445   0.32697676 
  529400    1.0191083   0.18945871    20.578887    22.296625   0.40352953 
  529500    0.9983834    0.1880725     20.60678    22.292054   0.28564771 
  529600    1.0049439   0.18739746    20.598155    22.292591   0.25723604 
  529700    1.0046793   0.18653347    20.590896    22.284072   0.19245046 
  529800   0.99493297   0.18616276    20.592652    22.270841   0.37796741 
  529900   0.99809265   0.18478812    20.585529    22.267082   0.17465017 
  530000   0.97946341   0.18358925    20.592545    22.244962   0.42871767 
Loop time of 0.609039 on 4 procs (4 MPI x 1 OpenMP) for 2000 steps with 4000 atoms

Pair  time (%) = 0.171762 (28.2022)
Bond  time (%) = 0.0586308 (9.62677)
Neigh time (%) = 0.0328686 (5.39679)
Comm  time (%) = 0.143987 (23.6417)
Outpt time (%) = 0.000982106 (0.161255)
Other time (%) = 0.200808 (32.9713)

Nlocal:    1000 ave 1073 max 913 min
Histogram: 1 0 0 0 1 0 0 1 0 1
Nghost:    1076.25 ave 1108 max 1064 min
Histogram: 3 0 0 0 0 0 0 0 0 1
Neighs:    3078.25 ave 3587 max 2439 min
Histogram: 1 0 0 0 0 1 0 1 0 1

Total # of neighbors = 12313
Ave neighs/atom = 3.07825
Ave special neighs/atom = 5.925
Neighbor list builds = 41
Dangerous builds = 0
shell          head -n 2 Temp.txt | tail -n 1 >> Tempfile.txt
shell          head -n 2 Bond.txt | tail -n 1 >> Bondfile.txt
next           myTempStr
next           myBondStr
if "${myBond} <= 0" then "jump imdinput.txt nobonds"
jump           imdinput.txt loop2here

# specifies the run length in timesteps
run            2000
WARNING: Use special bonds = 0,1,1 with bond style fene (../bond_fene.cpp:188)
Memory usage per processor = 5.59371 Mbytes
Step Temp E_pair E_mol TotEng Press 
  530000   0.97946341   0.18358925    20.592545    22.244962   0.42871767 
  530100    0.9871679   0.18405744    20.584522    22.248961   0.36080083 
  530200   0.98567963   0.18633357    20.590731    22.255215   0.36881927 
  530300   0.98802107   0.18734673    20.593889    22.262897     0.357211 
  530400    0.9850698   0.18816739    20.591152    22.256555   0.39675194 
  530500   0.99281997   0.18881701    20.587076     22.26475   0.34814435 
  530600   0.99988243    0.1874054    20.591411    22.278265   0.10890945 
  530700    1.0064961   0.18742891    20.593195     22.28999   0.52569124 
  530800   0.99575638    0.1888393    20.589429     22.27153   0.40718539 
  530900   0.99764609     0.190369    20.592315    22.278779   0.23019877 
  531000    1.0098722   0.18769487    20.586506     22.28863   0.23888923 
  531100    1.0023805   0.18826481    20.596028    22.287488   0.37558097 
  531200   0.99240766   0.19027767    20.595685    22.274202   0.20882424 
  531300   0.98472618   0.19169633    20.592513    22.260929   0.50715837 
  531400    1.0078008   0.19708332    20.579537    22.287944   0.34702517 
  531500    1.0009987   0.19659991    20.591337     22.28906   0.47991035 
  531600    1.0107476   0.19253765    20.584405    22.292685   0.22487177 
  531700    1.0176776   0.19045352    20.574993    22.291582   0.17623174 
  531800    1.0141846   0.19026894    20.575276    22.286442   0.30292207 
  531900   0.99982648    0.1948831    20.597733    22.291981   0.38306501 
  532000   0.98756511   0.19980737    20.599856    22.280641   0.32733614 
Loop time of 0.598455 on 4 procs (4 MPI x 1 OpenMP) for 2000 steps with 4000 atoms

Pair  time (%) = 0.169615 (28.3422)
Bond  time (%) = 0.0603626 (10.0864)
Neigh time (%) = 0.032607 (5.44853)
Comm  time (%) = 0.135261 (22.6017)
Outpt time (%) = 0.000995398 (0.166328)
Other time (%) = 0.199613 (33.3548)

Nlocal:    1000 ave 1040 max 953 min
Histogram: 1 0 1 0 0 0 0 0 0 2
Nghost:    1075 ave 1104 max 1052 min
Histogram: 2 0 0 0 0 0 1 0 0 1
Neighs:    3073.5 ave 3354 max 2761 min
Histogram: 1 0 1 0 0 0 0 0 0 2

Total # of neighbors = 12294
Ave neighs/atom = 3.0735
Ave special neighs/atom = 5.925
Neighbor list builds = 42
Dangerous builds = 0
shell          head -n 2 Temp.txt | tail -n 1 >> Tempfile.txt
shell          head -n 2 Bond.txt | tail -n 1 >> Bondfile.txt
next           myTempStr
next           myBondStr
if "${myBond} <= 0" then "jump imdinput.txt nobonds"
jump           imdinput.txt loop2here

# specifies the run length in timesteps
run            2000
WARNING: Use special bonds = 0,1,1 with bond style fene (../bond_fene.cpp:188)
Memory usage per processor = 5.5881 Mbytes
Step Temp E_pair E_mol TotEng Press 
  532000   0.98756511   0.19980737    20.599856    22.280641   0.32733614 
  532100    1.0201405    0.2056604    20.569504    22.304993   0.46608664 
  532200   0.99078141   0.20831311     20.58628    22.280394   0.45203938 
  532300   0.99913439   0.20544877    20.580268    22.284043   0.41000497 
  532400    1.0040662   0.20271473    20.582239    22.290676   0.37914102 
  532500   0.99570216   0.20206586    20.590264     22.28551   0.16303555 
  532600    1.0002359   0.19948874    20.591216    22.290683   0.38134572 
  532700    0.9989391   0.19957153    20.586781    22.284386   0.33349536 
  532800   0.99339588   0.19644654      20.5888    22.274968   0.33595221 
  532900   0.98973018   0.19484852    20.592802    22.271875   0.25420129 
  533000   0.99999809   0.19332488    20.571157    22.264104   0.24651801 
  533100   0.99712016    0.1891547    20.576019     22.26048   0.61217527 
  533200   0.99237975   0.18738522    20.584613    22.260196   0.56912252 
  533300    1.0072769   0.18881813    20.586123    22.285479    0.2894719 
  533400   0.99019314   0.18966967     20.59277    22.267358  0.055335583 
  533500   0.99701409   0.19264122    20.583049    22.270837   0.38163757 
  533600   0.98642255   0.19578173    20.581891    22.256936   0.23452968 
  533700   0.99274198   0.19906107    20.575019    22.262821   0.26695099 
  533800   0.98982924    0.1993648    20.568743    22.252481   0.43777314 
  533900   0.98848869   0.19671742    20.577464    22.256543   0.49255918 
  534000   0.98742854   0.19699557    20.583665    22.261433   0.29812366 
Loop time of 0.60459 on 4 procs (4 MPI x 1 OpenMP) for 2000 steps with 4000 atoms

Pair  time (%) = 0.171073 (28.2957)
Bond  time (%) = 0.0605299 (10.0117)
Neigh time (%) = 0.0321533 (5.3182)
Comm  time (%) = 0.137944 (22.8161)
Outpt time (%) = 0.00105691 (0.174814)
Other time (%) = 0.201833 (33.3834)

Nlocal:    1000 ave 1031 max 951 min
Histogram: 1 0 0 0 0 0 1 0 1 1
Nghost:    1031 ave 1074 max 961 min
Histogram: 1 0 0 0 0 0 1 0 1 1
Neighs:    3094.75 ave 3346 max 2844 min
Histogram: 1 0 0 1 0 0 1 0 0 1

Total # of neighbors = 12379
Ave neighs/atom = 3.09475
Ave special neighs/atom = 5.925
Neighbor list builds = 41
Dangerous builds = 0
shell          head -n 2 Temp.txt | tail -n 1 >> Tempfile.txt
shell          head -n 2 Bond.txt | tail -n 1 >> Bondfile.txt
next           myTempStr
next           myBondStr
if "${myBond} <= 0" then "jump imdinput.txt nobonds"
jump           imdinput.txt loop2here

# specifies the run length in timesteps
run            2000
WARNING: Use special bonds = 0,1,1 with bond style fene (../bond_fene.cpp:188)
Memory usage per processor = 5.58468 Mbytes
Step Temp E_pair E_mol TotEng Press 
  534000   0.98742854   0.19699557    20.583665    22.261433   0.29812366 
  534100    1.0061339   0.19709484    20.580648    22.286566   0.16170633 
  534200    1.0119909   0.19669598    20.580177     22.29448   0.50564218 
  534300    1.0149546   0.20118282    20.575202    22.298436   0.57243357 
  534400    1.0072345   0.20207252    20.596154      22.3087   0.23188565 
  534500    1.0086476   0.20197505    20.604712     22.31928   0.68293345 
  534600   0.99280087   0.20399467    20.612773    22.305597   0.35044164 
  534700    1.0042024   0.20414166    20.588127    22.298196   0.35721292 
  534800   0.99022742   0.20478875    20.602987    22.292746  0.096063015 
  534900    1.0105508   0.20560837    20.567991    22.289047   0.54219042 
  535000    0.9943885   0.20561278    20.594786    22.291609   0.22966423 
  535100   0.99684877   0.20410451    20.590622    22.289626   0.22212017 
  535200    1.0053724   0.20251326    20.586259    22.296454   0.38175578 
  535300   0.99896023   0.20066318    20.598048    22.296777   0.49318133 
  535400    1.0063018   0.19892778    20.594804    22.302807   0.48518164 
  535500    1.0063788   0.19724929    20.594209    22.300649   0.32184312 
  535600     1.010347     0.194192    20.609173    22.318507   0.38908938 
  535700    1.0240001     0.198905    20.583953    22.318474   0.34535504 
  535800    1.0207351    0.2006844    20.591043    22.322447   0.34879629 
  535900    1.0260797   0.19885334    20.605405    22.342993   0.17359985 
  536000    1.0255126   0.19581752    20.587811    22.321512   0.47513704 
Loop time of 0.613456 on 4 procs (4 MPI x 1 OpenMP) for 2000 steps with 4000 atoms

Pair  time (%) = 0.172857 (28.1775)
Bond  time (%) = 0.0615838 (10.0388)
Neigh time (%) = 0.0333145 (5.43062)
Comm  time (%) = 0.142437 (23.2188)
Outpt time (%) = 0.00103289 (0.168372)
Other time (%) = 0.202231 (32.9659)

Nlocal:    1000 ave 1010 max 992 min
Histogram: 1 0 1 0 0 1 0 0 0 1
Nghost:    1039.5 ave 1074 max 1013 min
Histogram: 1 0 1 0 0 1 0 0 0 1
Neighs:    3059.5 ave 3110 max 3004 min
Histogram: 1 0 0 1 0 0 0 1 0 1

Total # of neighbors = 12238
Ave neighs/atom = 3.0595
Ave special neighs/atom = 5.925
Neighbor list builds = 42
Dangerous builds = 0
shell          head -n 2 Temp.txt | tail -n 1 >> Tempfile.txt
shell          head -n 2 Bond.txt | tail -n 1 >> Bondfile.txt
next           myTempStr
next           myBondStr
if "${myBond} <= 0" then "jump imdinput.txt nobonds"
jump           imdinput.txt loop2here

# specifies the run length in timesteps
run            2000
WARNING: Use special bonds = 0,1,1 with bond style fene (../bond_fene.cpp:188)
Memory usage per processor = 5.5798 Mbytes
Step Temp E_pair E_mol TotEng Press 
  536000    1.0255126   0.19581752    20.587811    22.321512   0.47513704 
  536100     1.016291   0.19596399    20.595615    22.315634  0.089064796 
  536200    1.0254093   0.19426721     20.58496    22.316956   0.36622099 
  536300    1.0131524   0.19350578    20.605811    22.318665   0.47764978 
  536400    1.0061588   0.19679893    20.587925    22.293585    0.4930092 
  536500     1.006429   0.19986648    20.596732    22.305865   0.29110251 
  536600    1.0077631   0.20170248    20.600566    22.313535   0.19073684 
  536700    1.0110207   0.20455568    20.591566    22.312274    0.5136929 
  536800    1.0236317   0.20416652    20.569604    22.308834   0.45947831 
  536900   0.99227009   0.20303491    20.608688    22.299756   0.14418086 
  537000    1.0000939   0.20221662    20.588285    22.290268   0.48981208 
  537100     1.001432   0.20239972    20.590803    22.294975   0.42421347 
  537200   0.99941621    0.2059001    20.583109    22.287759   0.25533054 
  537300   0.99486483   0.20168499    20.586048    22.279657   0.22399378 
  537400    1.0006392   0.19632977    20.595278    22.292191   0.39128257 
  537500   0.99968031   0.19591731    20.598199    22.293262    0.3498334 
  537600    1.0031913   0.19582273    20.593767       22.294   0.48158982 
  537700    1.0196004   0.19609008    20.583992      22.3091   0.18525767 
  537800    1.0188479    0.1980248    20.608067    22.333981   0.42317122 
  537900    1.0221131   0.19971008    20.597694     22.33019   0.48177146 
  538000    1.0192355   0.19901355    20.600203    22.327687   0.27290033 
Loop time of 0.630805 on 4 procs (4 MPI x 1 OpenMP) for 2000 steps with 4000 atoms

Pair  time (%) = 0.175505 (27.8223)
Bond  time (%) = 0.0628552 (9.96428)
Neigh time (%) = 0.0331637 (5.25735)
Comm  time (%) = 0.15161 (24.0344)
Outpt time (%) = 0.00121677 (0.192891)
Other time (%) = 0.206455 (32.7288)

Nlocal:    1000 ave 1021 max 966 min
Histogram: 1 0 0 0 0 0 1 0 1 1
Nghost:    1087.75 ave 1151 max 1038 min
Histogram: 1 0 0 1 1 0 0 0 0 1
Neighs:    3067 ave 3162 max 2864 min
Histogram: 1 0 0 0 0 0 0 1 0 2

Total # of neighbors = 12268
Ave neighs/atom = 3.067
Ave special neighs/atom = 5.925
Neighbor list builds = 41
Dangerous builds = 0
shell          head -n 2 Temp.txt | tail -n 1 >> Tempfile.txt
shell          head -n 2 Bond.txt | tail -n 1 >> Bondfile.txt
next           myTempStr
next           myBondStr
if "${myBond} <= 0" then "jump imdinput.txt nobonds"
jump           imdinput.txt loop2here

# specifies the run length in timesteps
run            2000
WARNING: Use special bonds = 0,1,1 with bond style fene (../bond_fene.cpp:188)
Memory usage per processor = 5.58199 Mbytes
Step Temp E_pair E_mol TotEng Press 
  538000    1.0192355   0.19901355    20.600203    22.327687   0.27290033 
  538100     1.014644    0.1964169     20.60935    22.327353   0.38956131 
  538200    1.0108498   0.19430879    20.601362    22.311567   0.61428379 
  538300    1.0038656   0.19418229    20.600723    22.300327   0.31163437 
  538400    1.0013511   0.19457964    20.603054    22.299284   0.27234541 
  538500   0.99892478   0.19774965    20.608969    22.304732   0.31437312 
  538600   0.99920075   0.19624497    20.603984    22.298655   0.29512694 
  538700    1.0157933   0.19551568    20.589542    22.308366   0.26393684 
  538800    1.0293088   0.19218663     20.58191    22.317674   0.31944098 
  538900   0.99622439   0.19197295    20.610205    22.296141   0.40587368 
  539000    1.0063773   0.19492845     20.59835    22.302467   0.41967847 
  539100    0.9982929   0.19341982    20.598362    22.288847   0.20543721 
  539200    1.0044376   0.19456199    20.593097    22.293939   0.51566002 
  539300   0.99002851   0.19898973    20.596932    22.280593   0.28350072 
  539400    1.0131552   0.19649567    20.600079    22.315928   0.10400471 
  539500    1.0179048    0.1918216    20.603323     22.32162   0.39891261 
  539600    1.0226879   0.19173794    20.609324     22.33471    0.4503358 
  539700    1.0315773   0.18998634    20.595381    22.332346   0.56423866 
  539800    1.0190171   0.19130866    20.594798     22.31425   0.20875266 
  539900   0.99650803   0.19683288    20.609479      22.3007  0.083586584 
  540000    1.0008408   0.19914591    20.593714    22.293746    0.3790708 
Loop time of 0.623667 on 4 procs (4 MPI x 1 OpenMP) for 2000 steps with 4000 atoms

Pair  time (%) = 0.171192 (27.4492)
Bond  time (%) = 0.06235 (9.99732)
Neigh time (%) = 0.0340018 (5.45192)
Comm  time (%) = 0.149459 (23.9645)
Outpt time (%) = 0.00117886 (0.189021)
Other time (%) = 0.205486 (32.948)

Nlocal:    1000 ave 1021 max 984 min
Histogram: 1 1 0 0 0 1 0 0 0 1
Nghost:    1094 ave 1115 max 1071 min
Histogram: 1 0 0 0 1 0 1 0 0 1
Neighs:    3125.75 ave 3242 max 3036 min
Histogram: 1 0 1 0 0 1 0 0 0 1

Total # of neighbors = 12503
Ave neighs/atom = 3.12575
Ave special neighs/atom = 5.925
Neighbor list builds = 42
Dangerous builds = 0
shell          head -n 2 Temp.txt | tail -n 1 >> Tempfile.txt
shell          head -n 2 Bond.txt | tail -n 1 >> Bondfile.txt
next           myTempStr
next           myBondStr
if "${myBond} <= 0" then "jump imdinput.txt nobonds"
jump           imdinput.txt loop2here

# specifies the run length in timesteps
run            2000
WARNING: Use special bonds = 0,1,1 with bond style fene (../bond_fene.cpp:188)
Memory usage per processor = 5.58321 Mbytes
Step Temp E_pair E_mol TotEng Press 
  540000    1.0008408   0.19914591    20.593714    22.293746    0.3790708 
  540100    0.9827045   0.19862469    20.619375    22.291688  0.072978151 
  540200    0.9948996   0.19935825    20.584705     22.27604   0.63748962 
  540300   0.99323908   0.19967241    20.594455    22.283613   0.27156818 
  540400   0.99711442   0.19805544    20.580786    22.274139   0.40354411 
  540500   0.98468229   0.19500098    20.593881    22.265536   0.17532667 
  540600   0.98631369   0.19199567    20.590156    22.261252   0.50807625 
  540700   0.97482453   0.19105643    20.587706    22.240634  0.086247289 
  540800   0.98428314    0.1910564     20.56957    22.236682   0.34716816 
  540900   0.97898276   0.19046475    20.587589    22.246161   0.36270117 
  541000   0.99723056    0.1883711    20.590098    22.273941   0.53817573 
  541100   0.99664817   0.18625187    20.580503    22.261354  0.056791169 
  541200   0.99870851   0.18378777    20.567883    22.249359   0.31519135 
  541300   0.99450171   0.18159694    20.570978    22.243954   0.47549387 
  541400   0.98270971   0.18141286    20.580337    22.235446   0.30666734 
  541500   0.97832106   0.18751905    20.573168    22.227802   0.26383723 
  541600   0.97298404   0.19162486    20.584128    22.234865   0.32216596 
  541700    0.9803518   0.19495565    20.577487    22.242602   0.50730761 
  541800   0.97325199   0.19862514    20.599197    22.257335   0.29066327 
  541900   0.98193038   0.20237544    20.580316    22.255219   0.22682652 
  542000   0.99385234   0.20369992    20.576801    22.270906   0.29659763 
Loop time of 0.62377 on 4 procs (4 MPI x 1 OpenMP) for 2000 steps with 4000 atoms

Pair  time (%) = 0.170712 (27.3677)
Bond  time (%) = 0.0609483 (9.77095)
Neigh time (%) = 0.0345444 (5.538)
Comm  time (%) = 0.15422 (24.7239)
Outpt time (%) = 0.00119466 (0.191522)
Other time (%) = 0.202151 (32.4079)

Nlocal:    1000 ave 1043 max 973 min
Histogram: 1 1 0 1 0 0 0 0 0 1
Nghost:    1059.75 ave 1087 max 1033 min
Histogram: 1 1 0 0 0 0 0 0 1 1
Neighs:    3138 ave 3338 max 3025 min
Histogram: 2 0 0 1 0 0 0 0 0 1

Total # of neighbors = 12552
Ave neighs/atom = 3.138
Ave special neighs/atom = 5.925
Neighbor list builds = 42
Dangerous builds = 0
shell          head -n 2 Temp.txt | tail -n 1 >> Tempfile.txt
shell          head -n 2 Bond.txt | tail -n 1 >> Bondfile.txt
next           myTempStr
next           myBondStr
if "${myBond} <= 0" then "jump imdinput.txt nobonds"
jump           imdinput.txt loop2here

# specifies the run length in timesteps
run            2000
WARNING: Use special bonds = 0,1,1 with bond style fene (../bond_fene.cpp:188)
Memory usage per processor = 5.58736 Mbytes
Step Temp E_pair E_mol TotEng Press 
  542000   0.99385234   0.20369992    20.576801    22.270906   0.29659763 
  542100   0.98141531   0.20552548    20.594009     22.27129   0.44973144 
  542200    1.0068979   0.20625438    20.573351    22.289575   0.34520116 
  542300   0.99676436   0.20265828    20.572187    22.269618   0.27998408 
  542400    0.9976866   0.20306972    20.588526    22.287752   0.15371767 
  542500    1.0006275   0.19929671    20.605099    22.304961   0.43559631 
  542600    1.0031586   0.19850107    20.588766    22.291629   0.29217006 
  542700    1.0102985   0.19852778    20.597638    22.311235   0.30468066 
  542800    1.0190225   0.19708074    20.607135    22.332368   0.38533048 
  542900     1.006699   0.19831467    20.595681    22.303667   0.24343557 
  543000    0.9995894   0.20127894    20.600014    22.300303   0.29178631 
  543100    1.0011332    0.2009948    20.592484    22.294803   0.46456042 
  543200    1.0131938   0.19792572    20.591681    22.309017   0.37847799 
  543300    1.0222419   0.19821402    20.610138    22.341332   0.24485528 
  543400    1.0130728   0.19723952    20.612605    22.329073   0.40821703 
  543500    1.0074699   0.19734852    20.607368    22.315544   0.33193125 
  543600    1.0032036   0.19268293    20.602426    22.299538   0.36122041 
  543700    1.0142405   0.19305974     20.59257    22.306611   0.18186549 
  543800    1.0079736    0.1945362    20.604339    22.310458   0.37487272 
  543900    1.0111912   0.19421135    20.598688    22.309307  0.056266076 
  544000    1.0023485   0.19387934     20.61119    22.308216   0.55236198 
Loop time of 0.612678 on 4 procs (4 MPI x 1 OpenMP) for 2000 steps with 4000 atoms

Pair  time (%) = 0.168602 (27.5188)
Bond  time (%) = 0.0588105 (9.59893)
Neigh time (%) = 0.0335558 (5.47691)
Comm  time (%) = 0.150169 (24.5103)
Outpt time (%) = 0.00115263 (0.188131)
Other time (%) = 0.200388 (32.7069)

Nlocal:    1000 ave 1017 max 969 min
Histogram: 1 0 0 0 0 0 1 0 0 2
Nghost:    1045.75 ave 1066 max 1031 min
Histogram: 1 1 0 0 0 1 0 0 0 1
Neighs:    3075.75 ave 3293 max 2812 min
Histogram: 1 0 0 0 1 0 0 1 0 1

Total # of neighbors = 12303
Ave neighs/atom = 3.07575
Ave special neighs/atom = 5.925
Neighbor list builds = 42
Dangerous builds = 0
shell          head -n 2 Temp.txt | tail -n 1 >> Tempfile.txt
shell          head -n 2 Bond.txt | tail -n 1 >> Bondfile.txt
next           myTempStr
next           myBondStr
if "${myBond} <= 0" then "jump imdinput.txt nobonds"
jump           imdinput.txt loop2here

# specifies the run length in timesteps
run            2000
WARNING: Use special bonds = 0,1,1 with bond style fene (../bond_fene.cpp:188)
Memory usage per processor = 5.58248 Mbytes
Step Temp E_pair E_mol TotEng Press 
  544000    1.0023485   0.19387934     20.61119    22.308216   0.55236198 
  544100    1.0066358   0.19378112    20.590373     22.29373    0.4350152 
  544200    1.0086219   0.19119521    20.606835    22.310585    0.4041784 
  544300     1.008852   0.19096147    20.605266    22.309127   0.33744612 
  544400    1.0023413   0.19173911    20.599624    22.294499   0.34869319 
  544500    1.0128151   0.19554561    20.606706    22.321095   0.60160249 
  544600    1.0079453   0.19708917    20.617749    22.326378   0.34518143 
  544700    1.0199031   0.19589658    20.603358    22.328727   0.20830411 
  544800      1.01548   0.19496304    20.602628    22.320431   0.54358134 
  544900    1.0104564   0.18841456    20.621607    22.325327   0.37081887 
  545000    1.0226873    0.1851527    20.597264    22.316065   0.35517232 
  545100    1.0291087   0.18422189    20.607569    22.335068   0.39459654 
  545200    1.0317955   0.18447129    20.603019    22.334796   0.31409179 
  545300    1.0310562   0.18552784    20.616194    22.347919  0.050873416 
  545400    1.0304053    0.1885667    20.604766    22.338554   0.43247773 
  545500    1.0050125   0.18867012    20.622365    22.318177   0.35264065 
  545600    1.0152459   0.18897337    20.607025    22.318487   0.33529766 
  545700    1.0155503   0.18899799    20.612963    22.324905   0.39421372 
  545800    1.0166711   0.19218007    20.591239    22.308044   0.29380135 
  545900    1.0007519   0.19363857    20.587798    22.282189   0.22942372 
  546000   0.98314531   0.19518811    20.602567    22.272105   0.42283128 
Loop time of 0.624308 on 4 procs (4 MPI x 1 OpenMP) for 2000 steps with 4000 atoms

Pair  time (%) = 0.17171 (27.504)
Bond  time (%) = 0.0619101 (9.91659)
Neigh time (%) = 0.0334054 (5.35079)
Comm  time (%) = 0.149022 (23.8699)
Outpt time (%) = 0.00119257 (0.191023)
Other time (%) = 0.207068 (33.1676)

Nlocal:    1000 ave 1017 max 984 min
Histogram: 1 1 0 0 0 0 0 1 0 1
Nghost:    1063 ave 1086 max 1045 min
Histogram: 1 1 0 0 0 0 1 0 0 1
Neighs:    3084.75 ave 3151 max 2955 min
Histogram: 1 0 0 0 0 0 0 0 2 1

Total # of neighbors = 12339
Ave neighs/atom = 3.08475
Ave special neighs/atom = 5.925
Neighbor list builds = 41
Dangerous builds = 0
shell          head -n 2 Temp.txt | tail -n 1 >> Tempfile.txt
shell          head -n 2 Bond.txt | tail -n 1 >> Bondfile.txt
next           myTempStr
next           myBondStr
if "${myBond} <= 0" then "jump imdinput.txt nobonds"
jump           imdinput.txt loop2here

# specifies the run length in timesteps
run            2000
WARNING: Use special bonds = 0,1,1 with bond style fene (../bond_fene.cpp:188)
Memory usage per processor = 5.57931 Mbytes
Step Temp E_pair E_mol TotEng Press 
  546000   0.98314531   0.19518811    20.602567    22.272105   0.42283128 
  546100    1.0005791   0.19534155    20.597161    22.292996   0.41867666 
  546200    1.0012867   0.19189907    20.592118    22.285572   0.38348076 
  546300   0.99636178   0.19223435    20.592074    22.278477   0.25072641 
  546400   0.99009157   0.19371414    20.607135    22.285615   0.36562812 
  546500   0.99822745   0.19628991    20.591981    22.285238   0.21868444 
  546600     1.011837   0.19792382    20.590578    22.305878   0.28378739 
  546700     1.002156   0.20025923    20.590654    22.293771    0.3830014 
  546800    0.9957744    0.2031748    20.593798    22.290261     0.270038 
  546900     1.011132   0.19839683    20.567243    22.281959   0.53172933 
  547000    0.9967816   0.19377109    20.585409    22.273979   0.68699788 
  547100    1.0058256   0.19091999    20.592082    22.291363   0.19902541 
  547200   0.99347838   0.18991074    20.595588    22.275344   0.32376749 
  547300    1.0047966   0.19041818    20.562025    22.259261   0.33271151 
  547400   0.98782193   0.19198983    20.575856    22.249208   0.11794337 
  547500   0.97832032   0.19091211    20.576565    22.234591    0.4878279 
  547600   0.98071826   0.18595145    20.596099     22.25276   0.41372659 
  547700   0.97940545   0.18113546    20.610942    22.260818   0.21247138 
  547800   0.99718604   0.17693632    20.582772    22.255114   0.19414403 
  547900   0.98922372   0.17945883    20.581574    22.244498   0.23368162 
  548000   0.98321663   0.18302859     20.58613    22.243615   0.28247406 
Loop time of 0.629137 on 4 procs (4 MPI x 1 OpenMP) for 2000 steps with 4000 atoms

Pair  time (%) = 0.172369 (27.3977)
Bond  time (%) = 0.0613514 (9.75168)
Neigh time (%) = 0.0346304 (5.50443)
Comm  time (%) = 0.153917 (24.4648)
Outpt time (%) = 0.00123239 (0.195885)
Other time (%) = 0.205637 (32.6855)

Nlocal:    1000 ave 1027 max 982 min
Histogram: 2 0 0 0 0 1 0 0 0 1
Nghost:    1071.5 ave 1087 max 1045 min
Histogram: 1 0 0 0 0 0 1 0 1 1
Neighs:    3076.25 ave 3252 max 2939 min
Histogram: 2 0 0 0 0 0 1 0 0 1

Total # of neighbors = 12305
Ave neighs/atom = 3.07625
Ave special neighs/atom = 5.925
Neighbor list builds = 42
Dangerous builds = 0
shell          head -n 2 Temp.txt | tail -n 1 >> Tempfile.txt
shell          head -n 2 Bond.txt | tail -n 1 >> Bondfile.txt
next           myTempStr
next           myBondStr
if "${myBond} <= 0" then "jump imdinput.txt nobonds"
jump           imdinput.txt loop2here

# specifies the run length in timesteps
run            2000
WARNING: Use special bonds = 0,1,1 with bond style fene (../bond_fene.cpp:188)
Memory usage per processor = 5.58468 Mbytes
Step Temp E_pair E_mol TotEng Press 
  548000   0.98321663   0.18302859     20.58613    22.243615   0.28247406 
  548100   0.98751434   0.18880488    20.571776    22.241482   0.32188259 
  548200   0.98935322   0.18752524    20.577784    22.248969    0.2871345 
  548300   0.99505582    0.1843549     20.58973    22.266295   0.46999557 
  548400   0.99543439   0.18645768    20.596889    22.276125   0.40983485 
  548500    1.0011953   0.18763112    20.583355    22.272404   0.35392088 
  548600    0.9948818   0.18877795    20.584813     22.26554  0.001020531 
  548700   0.98660362   0.19063264    20.578979    22.249148   0.54275786 
  548800   0.96930847   0.19248601    20.594923    22.241008  0.096388841 
  548900   0.97737692    0.1934187    20.580685    22.239802   0.52469973 
  549000   0.97135788   0.19569408    20.584867    22.237234   0.17469749 
  549100   0.97019727   0.19411558    20.594902    22.243949   0.52101867 
  549200   0.98864938   0.19437567    20.583501     22.26048   0.19678219 
  549300   0.99619424   0.19179398    20.581443    22.267154   0.52015928 
  549400   0.99960504   0.19050126     20.59719    22.286724   0.35883814 
  549500   0.99159057   0.19149452    20.604613    22.283121   0.22533944 
  549600    1.0056511   0.19136584    20.583421    22.282886   0.31418645 
  549700   0.98582222   0.19260378    20.597636    22.268603   0.25451102 
  549800    1.0112077   0.19190048    20.582834    22.291167   0.37764798 
  549900    1.0131316   0.19366898    20.589344     22.30233   0.40424628 
  550000   0.99633261   0.19560101     20.60185    22.291576    0.2425758 
Loop time of 0.620281 on 4 procs (4 MPI x 1 OpenMP) for 2000 steps with 4000 atoms

Pair  time (%) = 0.171286 (27.6143)
Bond  time (%) = 0.0607041 (9.78654)
Neigh time (%) = 0.0341724 (5.50917)
Comm  time (%) = 0.149369 (24.0809)
Outpt time (%) = 0.00116026 (0.187055)
Other time (%) = 0.203589 (32.8221)

Nlocal:    1000 ave 1037 max 969 min
Histogram: 2 0 0 0 0 0 0 1 0 1
Nghost:    1084.5 ave 1105 max 1055 min
Histogram: 1 0 0 0 1 0 0 0 0 2
Neighs:    3079.25 ave 3283 max 2812 min
Histogram: 1 0 0 0 1 0 0 0 1 1

Total # of neighbors = 12317
Ave neighs/atom = 3.07925
Ave special neighs/atom = 5.925
Neighbor list builds = 42
Dangerous builds = 0
shell          head -n 2 Temp.txt | tail -n 1 >> Tempfile.txt
shell          head -n 2 Bond.txt | tail -n 1 >> Bondfile.txt
next           myTempStr
next           myBondStr
if "${myBond} <= 0" then "jump imdinput.txt nobonds"
jump           imdinput.txt loop2here

# specifies the run length in timesteps
run            2000
WARNING: Use special bonds = 0,1,1 with bond style fene (../bond_fene.cpp:188)
Memory usage per processor = 5.58566 Mbytes
Step Temp E_pair E_mol TotEng Press 
  550000   0.99633261   0.19560101     20.60185    22.291576    0.2425758 
  550100   0.98790789   0.19517431    20.603817    22.280483   0.42099099 
  550200   0.99952556    0.1931901    20.589865    22.281968   0.44451008 
  550300    1.0111167   0.18828286    20.588835    22.293414   0.31188987 
  550400   0.99388621   0.18973714     20.61144    22.291634   0.31191013 
  550500   0.99807501   0.19296443    20.613674    22.303377   0.31143563 
  550600   0.99640236   0.19568041    20.595037    22.284947   0.39747446 
  550700    1.0026085   0.19708083    20.610002     22.31062   0.31906535 
  550800    1.0185588   0.19570771    20.591416     22.31458   0.34400922 
  550900    1.0148762   0.19857563    20.615912    22.336422   0.23770579 
  551000     1.009409   0.20108713    20.596785    22.311607   0.37715334 
  551100    1.0119313   0.19816583     20.60854    22.324223   0.46720975 
  551200    1.0296954   0.19545712    20.578064    22.317678   0.50617905 
  551300    1.0131392   0.19398436    20.606986    22.320299   0.34113778 
  551400    1.0091213   0.19222441    20.602568    22.308096   0.22671834 
  551500    1.0083385   0.18779101     20.59307    22.292991   0.43797131 
  551600    1.0162447   0.18545226    20.594094    22.303532    0.6811136 
  551700    1.0158242   0.18755942    20.598446    22.309361   0.29421209 
  551800    1.0059393   0.19183633    20.607329    22.307697   0.31226914 
  551900    1.0045534   0.19572439    20.598211    22.300388   0.38513513 
  552000    1.0126113   0.19853714    20.582667    22.299741   0.18954306 
Loop time of 0.596019 on 4 procs (4 MPI x 1 OpenMP) for 2000 steps with 4000 atoms

Pair  time (%) = 0.169241 (28.3952)
Bond  time (%) = 0.0614547 (10.3109)
Neigh time (%) = 0.0325853 (5.46716)
Comm  time (%) = 0.132925 (22.3021)
Outpt time (%) = 0.00114352 (0.191859)
Other time (%) = 0.19867 (33.3328)

Nlocal:    1000 ave 1037 max 974 min
Histogram: 1 0 0 2 0 0 0 0 0 1
Nghost:    1071 ave 1095 max 1032 min
Histogram: 1 0 0 0 0 0 1 0 1 1
Neighs:    3099.5 ave 3224 max 2874 min
Histogram: 1 0 0 0 0 0 1 0 1 1

Total # of neighbors = 12398
Ave neighs/atom = 3.0995
Ave special neighs/atom = 5.925
Neighbor list builds = 42
Dangerous builds = 0
shell          head -n 2 Temp.txt | tail -n 1 >> Tempfile.txt
shell          head -n 2 Bond.txt | tail -n 1 >> Bondfile.txt
next           myTempStr
next           myBondStr
if "${myBond} <= 0" then "jump imdinput.txt nobonds"
jump           imdinput.txt loop2here

# specifies the run length in timesteps
run            2000
WARNING: Use special bonds = 0,1,1 with bond style fene (../bond_fene.cpp:188)
Memory usage per processor = 5.58614 Mbytes
Step Temp E_pair E_mol TotEng Press 
  552000    1.0126113   0.19853714    20.582667    22.299741   0.18954306 
  552100    1.0081351   0.19955678    20.591795    22.303176   0.24983062 
  552200    1.0241722   0.20066391    20.578519    22.315057   0.39822921 
  552300   0.99788774   0.20377979     20.60334    22.303577   0.20825886 
  552400    1.0214693   0.20663547    20.594152    22.332609   0.59173214 
  552500    1.0076904   0.20568066    20.599331     22.31617    0.1603098 
  552600    1.0102209   0.20354783    20.593442    22.311942   0.35187128 
  552700     1.012286   0.20302335    20.598354    22.319426   0.38980806 
  552800    1.0130279   0.20046537    20.590914    22.310542   0.30651095 
  552900     1.033321   0.19709914    20.581436    22.328129   0.46021974 
  553000    1.0292694   0.19350891     20.58293    22.319957   0.45971032 
  553100    1.0180254   0.19738812    20.590579    22.314623   0.31729622 
  553200    1.0116982   0.19996811    20.599637    22.316773   0.26752146 
  553300    1.0139651   0.19875174    20.581847    22.301166   0.49200474 
  553400    1.0106743   0.19940677    20.576892    22.291931   0.37249688 
  553500    1.0048495   0.19680411    20.584653    22.288355   0.57083928 
  553600    1.0105189   0.19197242    20.576325    22.283697    0.3257683 
  553700    1.0201096   0.19032364     20.57409    22.294195   0.38189112 
  553800   0.99866104   0.19230784    20.594818    22.284743   0.26477385 
  553900    1.0128937   0.19424162    20.579174    22.292376   0.18024435 
  554000    1.0062789   0.19910741    20.584858    22.293006  0.013165809 
Loop time of 0.646085 on 4 procs (4 MPI x 1 OpenMP) for 2000 steps with 4000 atoms

Pair  time (%) = 0.174952 (27.0788)
Bond  time (%) = 0.0622209 (9.63045)
Neigh time (%) = 0.0350789 (5.42945)
Comm  time (%) = 0.155828 (24.1188)
Outpt time (%) = 0.00129098 (0.199815)
Other time (%) = 0.216714 (33.5427)

Nlocal:    1000 ave 1011 max 986 min
Histogram: 1 0 0 0 1 0 0 1 0 1
Nghost:    1052.5 ave 1095 max 1029 min
Histogram: 2 0 0 1 0 0 0 0 0 1
Neighs:    3090.75 ave 3271 max 2969 min
Histogram: 1 0 1 1 0 0 0 0 0 1

Total # of neighbors = 12363
Ave neighs/atom = 3.09075
Ave special neighs/atom = 5.925
Neighbor list builds = 42
Dangerous builds = 0
shell          head -n 2 Temp.txt | tail -n 1 >> Tempfile.txt
shell          head -n 2 Bond.txt | tail -n 1 >> Bondfile.txt
next           myTempStr
next           myBondStr
if "${myBond} <= 0" then "jump imdinput.txt nobonds"
jump           imdinput.txt loop2here

# specifies the run length in timesteps
run            2000
WARNING: Use special bonds = 0,1,1 with bond style fene (../bond_fene.cpp:188)
Memory usage per processor = 5.58102 Mbytes
Step Temp E_pair E_mol TotEng Press 
  554000    1.0062789   0.19910741    20.584858    22.293006  0.013165809 
  554100    1.0048733   0.20201545    20.580842    22.289791   0.25540905 
  554200   0.98431308   0.20125799    20.589535    22.266894   0.43150983 
  554300   0.98883172   0.19835291    20.582112    22.263342   0.39601695 
  554400   0.99412109   0.19693252     20.58731    22.275052   0.35849892 
  554500   0.99368073   0.19237686    20.594232    22.276757   0.39566091 
  554600   0.98926031   0.18661818      20.5983    22.268437   0.19169229 
  554700   0.98975572   0.18200615    20.577842    22.244111   0.43486695 
  554800    1.0056854   0.18235428    20.575943    22.266448   0.17589543 
  554900    1.0031516   0.18429125    20.573647     22.26229   0.12835196 
  555000   0.98526981   0.18765548    20.603427    22.268618   0.29481587 
  555100     1.005649    0.1896129     20.58226    22.279969   0.15880535 
  555200    1.0038981   0.19117557     20.59878    22.295427   0.46552655 
  555300      1.00274   0.19322494    20.608166    22.305125   0.38020091 
  555400    1.0096777   0.19261978    20.593615    22.300373   0.46400303 
  555500   0.99529618   0.18868174    20.610683    22.291935   0.19346908 
  555600     0.995291    0.1900166    20.599291    22.281871   0.35726295 
  555700    1.0123972   0.18880488    20.577021    22.284042   0.16231147 
  555800    1.0019152   0.18819503    20.595197     22.28589   0.57566282 
  555900    1.0035788   0.18561211    20.593685    22.284289   0.34008101 
  556000   0.99952853   0.18675817    20.599479    22.285155    0.2446894 
Loop time of 0.611436 on 4 procs (4 MPI x 1 OpenMP) for 2000 steps with 4000 atoms

Pair  time (%) = 0.170758 (27.9274)
Bond  time (%) = 0.0618078 (10.1086)
Neigh time (%) = 0.0328296 (5.36927)
Comm  time (%) = 0.142857 (23.3642)
Outpt time (%) = 0.00120169 (0.196536)
Other time (%) = 0.201981 (33.0339)

Nlocal:    1000 ave 1021 max 972 min
Histogram: 1 0 0 0 0 1 1 0 0 1
Nghost:    1084.5 ave 1103 max 1070 min
Histogram: 2 0 0 0 0 0 0 1 0 1
Neighs:    3120.25 ave 3209 max 3013 min
Histogram: 1 0 0 0 1 0 0 1 0 1

Total # of neighbors = 12481
Ave neighs/atom = 3.12025
Ave special neighs/atom = 5.925
Neighbor list builds = 41
Dangerous builds = 0
shell          head -n 2 Temp.txt | tail -n 1 >> Tempfile.txt
shell          head -n 2 Bond.txt | tail -n 1 >> Bondfile.txt
next           myTempStr
next           myBondStr
if "${myBond} <= 0" then "jump imdinput.txt nobonds"
jump           imdinput.txt loop2here

# specifies the run length in timesteps
run            2000
WARNING: Use special bonds = 0,1,1 with bond style fene (../bond_fene.cpp:188)
Memory usage per processor = 5.58273 Mbytes
Step Temp E_pair E_mol TotEng Press 
  556000   0.99952853   0.18675817    20.599479    22.285155    0.2446894 
  556100   0.98696143     0.195991    20.604494    22.280557   0.35218105 
  556200   0.99577327   0.20279109    20.600667    22.296745   0.38911534 
  556300    1.0133115   0.20387462    20.591488    22.314949    0.4322606 
  556400     1.007299   0.20445515    20.609665    22.324691    0.2609859 
  556500    1.0072576   0.20171461    20.609062    22.321285   0.17048315 
  556600    1.0177223   0.19717741    20.608564    22.331943   0.26633308 
  556700     1.019845   0.18920484    20.601466    22.320056   0.39867355 
  556800    1.0121276   0.18984311    20.602011    22.309666   0.52507101 
  556900    1.0041024   0.19127084    20.603054    22.300102   0.34358878 
  557000    1.0105543   0.18851406    20.586099    22.290065    0.1780518 
  557100    1.0102958   0.18634994    20.582556     22.28397    0.4039031 
  557200     1.009334   0.18651044    20.587823    22.287956   0.25736289 
  557300    1.0237221   0.18829681    20.586841    22.310337   0.11025396 
  557400    1.0014835    0.1874763    20.598794     22.28812   0.42823421 
  557500   0.99444953   0.18527815    20.612968    22.289548   0.32077476 
  557600    0.9865621   0.18557048    20.609835    22.274879   0.22049244 
  557700    0.9933053   0.18341382    20.593219    22.266218    0.3118538 
  557800   0.99273359   0.18720028    20.602784    22.278713   0.64375546 
  557900   0.98601487   0.19162426    20.606822    22.277099   0.41297939 
  558000   0.99877024   0.19584143     20.60312    22.296742   0.28073439 
Loop time of 0.620759 on 4 procs (4 MPI x 1 OpenMP) for 2000 steps with 4000 atoms

Pair  time (%) = 0.173938 (28.0202)
Bond  time (%) = 0.062881 (10.1297)
Neigh time (%) = 0.0346851 (5.58753)
Comm  time (%) = 0.143929 (23.1859)
Outpt time (%) = 0.0012058 (0.194246)
Other time (%) = 0.204121 (32.8824)

Nlocal:    1000 ave 1015 max 976 min
Histogram: 1 0 0 0 0 1 0 0 0 2
Nghost:    1082 ave 1122 max 1054 min
Histogram: 1 0 0 2 0 0 0 0 0 1
Neighs:    3048.75 ave 3100 max 2995 min
Histogram: 1 0 0 0 1 1 0 0 0 1

Total # of neighbors = 12195
Ave neighs/atom = 3.04875
Ave special neighs/atom = 5.925
Neighbor list builds = 43
Dangerous builds = 0
shell          head -n 2 Temp.txt | tail -n 1 >> Tempfile.txt
shell          head -n 2 Bond.txt | tail -n 1 >> Bondfile.txt
next           myTempStr
next           myBondStr
if "${myBond} <= 0" then "jump imdinput.txt nobonds"
jump           imdinput.txt loop2here

# specifies the run length in timesteps
run            2000
WARNING: Use special bonds = 0,1,1 with bond style fene (../bond_fene.cpp:188)
Memory usage per processor = 5.58053 Mbytes
Step Temp E_pair E_mol TotEng Press 
  558000   0.99877024   0.19584143     20.60312    22.296742   0.28073439 
  558100     1.017027   0.19423259     20.59529    22.314682   0.58507084 
  558200    1.0059592   0.19105788    20.597411    22.297031   0.23174485 
  558300    1.0089481   0.18984659      20.5916    22.294491   0.37215589 
  558400   0.99439636   0.19257938    20.603939     22.28774   0.27204895 
  558500    1.0045155   0.19942326    20.584791    22.290611    0.1607992 
  558600   0.99978721   0.20253172    20.597333    22.299171   0.37241547 
  558700    1.0001915   0.20232588    20.599902     22.30214    0.2921011 
  558800   0.99078276    0.1998374    20.597718    22.283358    0.2425466 
  558900   0.99504153   0.19906324    20.590893    22.282145   0.20383878 
  559000   0.98527666   0.19340967    20.593111    22.264066   0.32426336 
  559100   0.97206758   0.19441473    20.605497    22.257649  0.088056886 
  559200   0.98234992   0.19117301    20.589853    22.254183   0.59723377 
  559300   0.98042321   0.19117445    20.589549    22.250991   0.65473983 
  559400   0.97204659   0.19165812    20.590754    22.240117   0.25613521 
  559500   0.96368467   0.19570635    20.597419    22.238291   0.41167219 
  559600   0.97838233   0.19398881    20.576852    22.238047    0.3567663 
  559700   0.97305791   0.18878307    20.595791    22.243796   0.29219234 
  559800   0.98272972   0.18780988    20.599307    22.260843   0.20781674 
  559900   0.99346839    0.1866047    20.581859    22.258293   0.56309518 
  560000   0.98497747   0.19017282    20.601345    22.268614   0.18796992 
Loop time of 0.620391 on 4 procs (4 MPI x 1 OpenMP) for 2000 steps with 4000 atoms

Pair  time (%) = 0.171362 (27.6216)
Bond  time (%) = 0.0606008 (9.76815)
Neigh time (%) = 0.0336331 (5.42127)
Comm  time (%) = 0.150926 (24.3276)
Outpt time (%) = 0.00122535 (0.197513)
Other time (%) = 0.202644 (32.6639)

Nlocal:    1000 ave 1028 max 977 min
Histogram: 1 0 0 1 1 0 0 0 0 1
Nghost:    1083.5 ave 1109 max 1063 min
Histogram: 1 0 0 1 1 0 0 0 0 1
Neighs:    3114 ave 3239 max 2895 min
Histogram: 1 0 0 0 0 0 1 0 1 1

Total # of neighbors = 12456
Ave neighs/atom = 3.114
Ave special neighs/atom = 5.925
Neighbor list builds = 42
Dangerous builds = 0
shell          head -n 2 Temp.txt | tail -n 1 >> Tempfile.txt
shell          head -n 2 Bond.txt | tail -n 1 >> Bondfile.txt
next           myTempStr
next           myBondStr
if "${myBond} <= 0" then "jump imdinput.txt nobonds"
jump           imdinput.txt loop2here

# specifies the run length in timesteps
run            2000
WARNING: Use special bonds = 0,1,1 with bond style fene (../bond_fene.cpp:188)
Memory usage per processor = 5.5837 Mbytes
Step Temp E_pair E_mol TotEng Press 
  560000   0.98497747   0.19017282    20.601345    22.268614   0.18796992 
  560100   0.99760635   0.19431937    20.576439    22.266794   0.33332883 
  560200   0.99648435   0.19623202    20.585445    22.276029   0.36718045 
  560300   0.98763538   0.20030399    20.592239    22.273626    0.4686079 
  560400   0.99432215   0.19895873    20.590872    22.280941   0.28227716 
  560500   0.99318488   0.19446436    20.598313    22.282182   0.47266754 
  560600   0.97937871   0.19295357    20.614671    22.276325   0.35065547 
  560700   0.99757368   0.19098905    20.591512    22.278487   0.51956547 
  560800   0.99751844   0.19178892    20.575588     22.26328   0.28615269 
  560900   0.99157003    0.1906435     20.60258    22.280207   0.48032385 
  561000    1.0018609   0.18713756     20.57718    22.266733   0.27676994 
  561100   0.99218163   0.18342637    20.605827    22.277154   0.18216072 
  561200    1.0063399   0.17787335    20.577849    22.264855   0.13187392 
  561300    1.0032749   0.17326154    20.576758    22.254555   0.33134396 
  561400     1.000964    0.1751054    20.587072    22.263248   0.59072404 
  561500    1.0020078   0.17696216    20.582745    22.262343   0.20905051 
  561600   0.99977422   0.18046451    20.580543    22.260294   0.58248293 
  561700   0.99008958   0.18624373    20.588363     22.25937   0.15803022 
  561800    0.9879002   0.18722587    20.576192    22.244898    0.3463319 
  561900   0.96834875   0.18835956    20.593815    22.234334   0.31265746 
  562000   0.97806778   0.18860732    20.591114    22.246456      0.52816 
Loop time of 0.610247 on 4 procs (4 MPI x 1 OpenMP) for 2000 steps with 4000 atoms

Pair  time (%) = 0.166932 (27.3549)
Bond  time (%) = 0.0596879 (9.78095)
Neigh time (%) = 0.033199 (5.44026)
Comm  time (%) = 0.149708 (24.5323)
Outpt time (%) = 0.00117278 (0.192181)
Other time (%) = 0.199547 (32.6994)

Nlocal:    1000 ave 1027 max 957 min
Histogram: 1 0 0 0 1 0 0 0 0 2
Nghost:    1067.75 ave 1091 max 1054 min
Histogram: 2 0 0 0 1 0 0 0 0 1
Neighs:    3113.25 ave 3253 max 2822 min
Histogram: 1 0 0 0 0 0 0 1 0 2

Total # of neighbors = 12453
Ave neighs/atom = 3.11325
Ave special neighs/atom = 5.925
Neighbor list builds = 42
Dangerous builds = 0
shell          head -n 2 Temp.txt | tail -n 1 >> Tempfile.txt
shell          head -n 2 Bond.txt | tail -n 1 >> Bondfile.txt
next           myTempStr
next           myBondStr
if "${myBond} <= 0" then "jump imdinput.txt nobonds"
jump           imdinput.txt loop2here

# specifies the run length in timesteps
run            2000
WARNING: Use special bonds = 0,1,1 with bond style fene (../bond_fene.cpp:188)
Memory usage per processor = 5.58395 Mbytes
Step Temp E_pair E_mol TotEng Press 
  562000   0.97806778   0.18860732    20.591114    22.246456      0.52816 
  562100   0.98980463   0.19079037     20.57317    22.248296   0.29239879 
  562200     0.985582   0.18870303     20.58859    22.255296   0.24540942 
  562300    0.9906478   0.19247492    20.580623    22.258698   0.21562478 
  562400   0.98954934   0.19723106    20.567633    22.248817   0.34419428 
  562500   0.97513876   0.19480184     20.59306    22.250204   0.48704947 
  562600   0.98971623   0.19137637    20.567642    22.243222   0.35283243 
  562700   0.97883277   0.18994707    20.580571      22.2384   0.33328862 
  562800   0.99996358   0.19164891    20.556063    22.247283   0.32824766 
  562900    0.9870152   0.19291221    20.577345     22.25041   0.35533123 
  563000   0.97461388   0.19007095    20.600123     22.25175   0.24612889 
  563100    1.0058039   0.18795324    20.567398     22.26368   0.30168369 
  563200    1.0091768   0.18723982    20.572714    22.273341   0.34076055 
  563300    0.9992234    0.1847794    20.588886    22.272125   0.32925594 
  563400   0.99660562   0.18613941    20.587632    22.268306   0.27615131 
  563500   0.99224132   0.18996986     20.57466     22.25262   0.44359097 
  563600   0.98878939   0.18992238    20.590791    22.263526   0.19414596 
  563700    1.0042236   0.18893039    20.563447    22.258336    0.3365744 
  563800   0.97901063   0.18992868    20.596041    22.254118   0.29898417 
  563900   0.98490334   0.18914592    20.586959     22.25309   0.35916273 
  564000   0.97703043   0.18913237    20.584847    22.239159   0.43105548 
Loop time of 0.611859 on 4 procs (4 MPI x 1 OpenMP) for 2000 steps with 4000 atoms

Pair  time (%) = 0.170526 (27.8701)
Bond  time (%) = 0.0609586 (9.96285)
Neigh time (%) = 0.0343611 (5.61586)
Comm  time (%) = 0.142615 (23.3085)
Outpt time (%) = 0.00123733 (0.202225)
Other time (%) = 0.202161 (33.0404)

Nlocal:    1000 ave 1018 max 984 min
Histogram: 1 1 0 0 0 0 0 1 0 1
Nghost:    1052.5 ave 1072 max 1026 min
Histogram: 1 0 0 1 0 0 0 0 0 2
Neighs:    3098.5 ave 3326 max 2960 min
Histogram: 1 0 1 1 0 0 0 0 0 1

Total # of neighbors = 12394
Ave neighs/atom = 3.0985
Ave special neighs/atom = 5.925
Neighbor list builds = 43
Dangerous builds = 0
shell          head -n 2 Temp.txt | tail -n 1 >> Tempfile.txt
shell          head -n 2 Bond.txt | tail -n 1 >> Bondfile.txt
next           myTempStr
next           myBondStr
if "${myBond} <= 0" then "jump imdinput.txt nobonds"
jump           imdinput.txt loop2here

# specifies the run length in timesteps
run            2000
WARNING: Use special bonds = 0,1,1 with bond style fene (../bond_fene.cpp:188)
Memory usage per processor = 5.58126 Mbytes
Step Temp E_pair E_mol TotEng Press 
  564000   0.97703043   0.18913237    20.584847    22.239159   0.43105548 
  564100   0.97410214   0.18904779     20.59024    22.240076   0.38460091 
  564200   0.98044586   0.18895822    20.576556    22.235816   0.50844735 
  564300   0.99276001     0.187538    20.577058    22.253363   0.36395229 
  564400   0.98573205   0.18490725    20.593765      22.2569   0.08934352 
  564500    1.0065513    0.1824282    20.577126    22.269004   0.20758265 
  564600   0.99789611   0.18540668    20.579134     22.26101   0.29053157 
  564700   0.99306137     0.187522    20.591858      22.2686   0.45014907 
  564800     1.001287   0.19060826    20.588758    22.280921   0.33627365 
  564900   0.99080339   0.19104437    20.595732     22.27261   0.17340573 
  565000   0.98515935   0.19217592    20.584334    22.253879   0.10268868 
  565100   0.98807158   0.19139158    20.597353    22.270481   0.70583272 
  565200   0.98899442   0.18872718    20.597909    22.269756   0.42595524 
  565300   0.99866904   0.19040843    20.593793    22.281831   0.24550484 
  565400   0.98646237   0.19444687    20.593002    22.266772   0.23821687 
  565500   0.98941756   0.19911861    20.593773    22.276647   0.30546814 
  565600    1.0040402   0.20003343     20.58354    22.289257   0.24424437 
  565700   0.99431468   0.19775982    20.595365    22.284224   0.34875601 
  565800    0.9850446   0.19706642     20.59326    22.267524    0.4639853 
  565900   0.98829588   0.19622413    20.602104    22.280401   0.57207396 
  566000   0.99794799   0.19696328    20.589047    22.282558    0.4871082 
Loop time of 0.614581 on 4 procs (4 MPI x 1 OpenMP) for 2000 steps with 4000 atoms

Pair  time (%) = 0.170323 (27.7136)
Bond  time (%) = 0.0622797 (10.1337)
Neigh time (%) = 0.0330213 (5.37297)
Comm  time (%) = 0.143848 (23.4058)
Outpt time (%) = 0.00119948 (0.195171)
Other time (%) = 0.20391 (33.1787)

Nlocal:    1000 ave 1025 max 981 min
Histogram: 2 0 0 0 0 0 1 0 0 1
Nghost:    1078.75 ave 1126 max 1045 min
Histogram: 1 1 0 0 0 1 0 0 0 1
Neighs:    3090.5 ave 3224 max 2866 min
Histogram: 1 0 0 0 0 0 1 0 1 1

Total # of neighbors = 12362
Ave neighs/atom = 3.0905
Ave special neighs/atom = 5.925
Neighbor list builds = 41
Dangerous builds = 0
shell          head -n 2 Temp.txt | tail -n 1 >> Tempfile.txt
shell          head -n 2 Bond.txt | tail -n 1 >> Bondfile.txt
next           myTempStr
next           myBondStr
if "${myBond} <= 0" then "jump imdinput.txt nobonds"
jump           imdinput.txt loop2here

# specifies the run length in timesteps
run            2000
WARNING: Use special bonds = 0,1,1 with bond style fene (../bond_fene.cpp:188)
Memory usage per processor = 5.58126 Mbytes
Step Temp E_pair E_mol TotEng Press 
  566000   0.99794799   0.19696328    20.589047    22.282558    0.4871082 
  566100    1.0022564   0.19546691    20.586914    22.285389   0.25454511 
  566200   0.99556267   0.19550351    20.604703    22.293177   0.22375902 
  566300    1.0043359   0.19311171    20.600713    22.299952   0.26971403 
  566400    1.0134499   0.19305341    20.596152       22.309   0.29314191 
  566500    1.0001921   0.19384626    20.608819    22.302578   0.49651473 
  566600    1.0192621   0.19372581    20.595393     22.31763   0.30840837 
  566700    1.0031112   0.19423291    20.606689    22.305212  0.041997669 
  566800    1.0009973   0.19419116      20.6057    22.301012    0.1086077 
  566900    1.0082702    0.1954226    20.588722    22.296171   0.63248112 
  567000    1.0069312   0.19526934    20.594658    22.299947   0.31496368 
  567100   0.99520854   0.19443917     20.60676    22.293639   0.20494885 
  567200    1.0037598   0.19597232    20.601905     22.30314   0.35890374 
  567300    1.0108914   0.19514532    20.606971    22.318075   0.41614769 
  567400   0.99901495   0.19323412     20.59641    22.287792   0.54673435 
  567500    1.0108237   0.19205896    20.601165     22.30908   0.13024017 
  567600    1.0278982   0.19153542    20.592032     22.32503   0.40093921 
  567700    1.0200903   0.19148303     20.59661    22.317846   0.42774186 
  567800    1.0197123   0.19741953    20.600326    22.326932   0.19224271 
  567900    1.0247887   0.20060136    20.590879    22.328279   0.16805583 
  568000    1.0110971   0.19595642    20.602167     22.31439   0.44799448 
Loop time of 0.620348 on 4 procs (4 MPI x 1 OpenMP) for 2000 steps with 4000 atoms

Pair  time (%) = 0.17245 (27.7989)
Bond  time (%) = 0.0618045 (9.96288)
Neigh time (%) = 0.0337104 (5.43411)
Comm  time (%) = 0.147595 (23.7923)
Outpt time (%) = 0.00115258 (0.185795)
Other time (%) = 0.203636 (32.8261)

Nlocal:    1000 ave 1054 max 967 min
Histogram: 1 1 0 1 0 0 0 0 0 1
Nghost:    1044.25 ave 1091 max 1002 min
Histogram: 1 1 0 0 0 0 0 1 0 1
Neighs:    3066 ave 3430 max 2866 min
Histogram: 1 1 1 0 0 0 0 0 0 1

Total # of neighbors = 12264
Ave neighs/atom = 3.066
Ave special neighs/atom = 5.925
Neighbor list builds = 42
Dangerous builds = 0
shell          head -n 2 Temp.txt | tail -n 1 >> Tempfile.txt
shell          head -n 2 Bond.txt | tail -n 1 >> Bondfile.txt
next           myTempStr
next           myBondStr
if "${myBond} <= 0" then "jump imdinput.txt nobonds"
jump           imdinput.txt loop2here

# specifies the run length in timesteps
run            2000
WARNING: Use special bonds = 0,1,1 with bond style fene (../bond_fene.cpp:188)
Memory usage per processor = 5.59054 Mbytes
Step Temp E_pair E_mol TotEng Press 
  568000    1.0110971   0.19595642    20.602167     22.31439   0.44799448 
  568100    1.0208061   0.19145621    20.596108    22.318391   0.28557956 
  568200   0.99867908   0.18651423    20.615502     22.29966   0.27211018 
  568300      1.01322   0.18413564    20.607757    22.311343   0.24295471 
  568400    1.0169257   0.18314408    20.608644    22.316795   0.28822312 
  568500    1.0166072   0.18577671    20.598514     22.30882   0.46789854 
  568600     1.019474   0.18954791    20.596207    22.314584   0.30437507 
  568700    1.0087393   0.19206745    20.609508    22.314306   0.41668769 
  568800    1.0017194   0.19732341    20.608624     22.30815  0.075109202 
  568900    1.0064786   0.19773232    20.593058    22.300131   0.20788602 
  569000    1.0065943   0.19494307    20.589634    22.294091   0.28480658 
  569100    0.9959926   0.19154753    20.580308    22.265471   0.40273254 
  569200    1.0039311   0.19610965     20.58761     22.28924   0.34606233 
  569300    1.0048595   0.19428465    20.567908    22.269105   0.59025332 
  569400   0.99003069   0.19557524    20.589618    22.269868   0.11239422 
  569500    1.0019592   0.19574082    20.569879    22.268183   0.16377241 
  569600    1.0004385    0.1972101    20.578648    22.276141   0.29427445 
  569700     0.995398   0.19463958    20.576459    22.263823   0.40607919 
  569800     1.005479   0.19302441    20.573452    22.274318   0.34553954 
  569900    1.0033493   0.19243457    20.576696    22.273778  0.046536035 
  570000   0.98991642   0.19038081    20.599723    22.274607   0.33548684 
Loop time of 0.604314 on 4 procs (4 MPI x 1 OpenMP) for 2000 steps with 4000 atoms

Pair  time (%) = 0.168551 (27.8913)
Bond  time (%) = 0.0617105 (10.2117)
Neigh time (%) = 0.0333308 (5.51548)
Comm  time (%) = 0.136776 (22.6333)
Outpt time (%) = 0.00130761 (0.216379)
Other time (%) = 0.202638 (33.5319)

Nlocal:    1000 ave 1052 max 970 min
Histogram: 2 0 0 0 1 0 0 0 0 1
Nghost:    1029 ave 1047 max 1011 min
Histogram: 1 0 1 0 0 0 0 1 0 1
Neighs:    3099.75 ave 3471 max 2893 min
Histogram: 2 0 0 1 0 0 0 0 0 1

Total # of neighbors = 12399
Ave neighs/atom = 3.09975
Ave special neighs/atom = 5.925
Neighbor list builds = 43
Dangerous builds = 0
shell          head -n 2 Temp.txt | tail -n 1 >> Tempfile.txt
shell          head -n 2 Bond.txt | tail -n 1 >> Bondfile.txt
next           myTempStr
next           myBondStr
if "${myBond} <= 0" then "jump imdinput.txt nobonds"
jump           imdinput.txt loop2here

# specifies the run length in timesteps
run            2000
WARNING: Use special bonds = 0,1,1 with bond style fene (../bond_fene.cpp:188)
Memory usage per processor = 5.58981 Mbytes
Step Temp E_pair E_mol TotEng Press 
  570000   0.98991642   0.19038081    20.599723    22.274607   0.33548684 
  570100   0.85312888   0.18796787    20.529852    21.997193    0.3049309 
  570200   0.72742886   0.18239861     20.48736     21.76063   0.50679126 
  570300   0.62609388   0.17449276     20.44501    21.558409   0.53640707 
  570400   0.54531125   0.16118032    20.405077    21.384019   0.46706173 
  570500   0.47103251    0.1455605    20.379371    21.231304 -0.028885751 
  570600   0.41994062   0.13047228    20.338516    21.098742   0.29962331 
  570700   0.36585921   0.11478969    20.318809     20.98225   0.29729059 
  570800   0.31651009  0.099658764    20.305411    20.879716   0.27292569 
  570900   0.28381339  0.085064557    20.278118    20.788796   0.18181778 
  571000   0.25443316  0.071724865    20.254717    20.707996   0.23207148 
  571100   0.22570559  0.060423288    20.237752    20.636649   0.23688562 
  571200    0.1983117  0.050602499    20.225101    20.573096   0.18425831 
  571300   0.17506215  0.042568399     20.21161    20.516706  0.066952283 
  571400   0.15777801  0.035818066    20.194333    20.466759   0.22823973 
  571500   0.13687352  0.029976002    20.187421    20.422655   0.17301106 
  571600   0.12124242  0.025426119    20.176256      20.3835   0.10942166 
  571700   0.10972769   0.02100682    20.163293    20.348851    0.1656239 
  571800  0.096142865  0.017506875    20.156604    20.318289   0.12839267 
  571900  0.085928061  0.014426925    20.147793    20.291079  0.015451255 
  572000  0.075015957  0.011815175    20.142643    20.266954   0.10106975 
Loop time of 0.558653 on 4 procs (4 MPI x 1 OpenMP) for 2000 steps with 4000 atoms

Pair  time (%) = 0.139198 (24.9167)
Bond  time (%) = 0.0603025 (10.7943)
Neigh time (%) = 0.0165408 (2.96084)
Comm  time (%) = 0.135194 (24.2)
Outpt time (%) = 0.00116622 (0.208757)
Other time (%) = 0.206251 (36.9194)

Nlocal:    1000 ave 1030 max 982 min
Histogram: 2 0 0 0 1 0 0 0 0 1
Nghost:    1049.5 ave 1070 max 1036 min
Histogram: 1 0 1 1 0 0 0 0 0 1
Neighs:    2744 ave 2999 max 2551 min
Histogram: 2 0 0 0 0 0 1 0 0 1

Total # of neighbors = 10976
Ave neighs/atom = 2.744
Ave special neighs/atom = 5.925
Neighbor list builds = 21
Dangerous builds = 0
shell          head -n 2 Temp.txt | tail -n 1 >> Tempfile.txt
shell          head -n 2 Bond.txt | tail -n 1 >> Bondfile.txt
next           myTempStr
next           myBondStr
if "${myBond} <= 0" then "jump imdinput.txt nobonds"
jump           imdinput.txt loop2here

# specifies the run length in timesteps
run            2000
WARNING: Use special bonds = 0,1,1 with bond style fene (../bond_fene.cpp:188)
Memory usage per processor = 5.58443 Mbytes
Step Temp E_pair E_mol TotEng Press 
  572000  0.075015957  0.011815175    20.142643    20.266954   0.10106975 
  572100  0.067318277 0.0098099638    20.134849    20.245611 -0.010329042 
  572200  0.059503376 0.0079601211    20.129501    20.226694   0.07274584 
  572300  0.051834743 0.0066145231    20.125659    20.210006  0.092620134 
  572400  0.046861771 0.0053101741    20.119598    20.195184   0.14880925 
  572500  0.041110213 0.0041965541    20.116192    20.182038  0.003625817 
  572600  0.037012369 0.0032827783      20.1116    20.170387 0.0060858847 
  572700  0.032208022 0.0026100846    20.109133    20.160043  0.017415046 
  572800  0.028977521 0.0021393085    20.105247    20.150842 0.0077679506 
  572900  0.025214723 0.0018154968    20.103116    20.142744  0.018950303 
  573000  0.022501714 0.0014932305    20.100329    20.135566  0.078871662 
  573100  0.020078428   0.00127329    20.097817    20.129201  -0.01238659 
  573200  0.017753826 0.0010159034    20.095923    20.123563  0.032149476 
  573300  0.015725433 0.00083702979    20.094115    20.118534  0.017560335 
  573400   0.01409449 0.00065091475    20.092261    20.114048  0.021456948 
  573500   0.01253986 0.00052025727    20.090757    20.110082 -0.0040897998 
  573600  0.011472323 0.00039305852    20.088951    20.106548 -0.012932781 
  573700  0.010007891 0.00030991017     20.08807    20.103388  0.038652871 
  573800 0.0088244996 0.00021929726    20.087108    20.100561  0.020704436 
  573900 0.0077826213 0.00016562017    20.086206    20.098042 -0.0036388634 
  574000 0.0070013103 0.00013186319    20.085175    20.095807  0.015245178 
Loop time of 0.466222 on 4 procs (4 MPI x 1 OpenMP) for 2000 steps with 4000 atoms

Pair  time (%) = 0.0773962 (16.6007)
Bond  time (%) = 0.0617079 (13.2357)
Neigh time (%) = 0.0038082 (0.816821)
Comm  time (%) = 0.116918 (25.0778)
Outpt time (%) = 0.00108075 (0.23181)
Other time (%) = 0.205311 (44.0371)

Nlocal:    1000 ave 1038 max 978 min
Histogram: 2 0 0 0 1 0 0 0 0 1
Nghost:    1050.25 ave 1066 max 1019 min
Histogram: 1 0 0 0 0 0 1 0 0 2
Neighs:    2681 ave 2991 max 2457 min
Histogram: 2 0 0 0 0 1 0 0 0 1

Total # of neighbors = 10724
Ave neighs/atom = 2.681
Ave special neighs/atom = 5.925
Neighbor list builds = 5
Dangerous builds = 0
shell          head -n 2 Temp.txt | tail -n 1 >> Tempfile.txt
shell          head -n 2 Bond.txt | tail -n 1 >> Bondfile.txt
next           myTempStr
next           myBondStr
if "${myBond} <= 0" then "jump imdinput.txt nobonds"
jump           imdinput.txt loop2here

# specifies the run length in timesteps
run            2000
WARNING: Use special bonds = 0,1,1 with bond style fene (../bond_fene.cpp:188)
Memory usage per processor = 5.58492 Mbytes
Step Temp E_pair E_mol TotEng Press 
  574000 0.0070013103 0.00013186319    20.085175    20.095807  0.015245178 
  574100 0.0062376823 0.00010821167    20.084337    20.093799   0.01485357 
  574200 0.0058027069 8.388105e-05     20.08323    20.092015 -0.0020899131 
  574300 0.0050024126 6.9303541e-05    20.082849     20.09042 -0.0069235309 
  574400 0.0044529576 4.9655642e-05    20.082262     20.08899 -0.016604328 
  574500 0.0040811647 4.1608295e-05    20.081549    20.087711 -0.0060002296 
  574600 0.0036267713 2.8745494e-05    20.081099    20.086567 0.0025577124 
  574700  0.003234548 2.3526493e-05    20.080668    20.085542  0.013628173 
  574800  0.002930743 1.4612561e-05    20.080213    20.084623  0.012522338 
  574900 0.0025396653 1.001433e-05    20.079976    20.083795 0.0079500671 
  575000 0.0023558552  8.22102e-06    20.079511    20.083052 -0.0036209645 
  575100 0.0021112738 6.6446955e-06    20.079211    20.082384 -0.0041276774 
  575200 0.0018823792 5.6612246e-06    20.078957    20.081785 -0.010562397 
  575300 0.0017158072 4.6818757e-06     20.07867    20.081248  0.016101519 
  575400 0.0015084779 3.7736904e-06    20.078498    20.080764 -0.0097743047 
  575500 0.0013769494 2.6252489e-06    20.078259    20.080327 0.0039286591 
  575600 0.0012439426 2.3104762e-06    20.078068    20.079936 -0.010667763 
  575700 0.0011144895 1.4308079e-06     20.07791    20.079582 0.00013036281 
  575800 0.0010070122 1.0333129e-06    20.077753    20.079264  0.014803577 
  575900 0.00089654454 7.6114424e-07    20.077632    20.078978 0.0072472679 
  576000 0.0008177425 4.3288036e-07    20.077492    20.078719 0.0070778146 
Loop time of 0.429811 on 4 procs (4 MPI x 1 OpenMP) for 2000 steps with 4000 atoms

Pair  time (%) = 0.0512595 (11.926)
Bond  time (%) = 0.0614828 (14.3046)
Neigh time (%) = 0.000765979 (0.178213)
Comm  time (%) = 0.112335 (26.1359)
Outpt time (%) = 0.00103194 (0.24009)
Other time (%) = 0.202936 (47.2151)

Nlocal:    1000 ave 1032 max 983 min
Histogram: 2 0 0 1 0 0 0 0 0 1
Nghost:    1051.25 ave 1072 max 1019 min
Histogram: 1 0 0 0 0 0 1 1 0 1
Neighs:    2676.75 ave 2926 max 2528 min
Histogram: 2 0 0 0 1 0 0 0 0 1

Total # of neighbors = 10707
Ave neighs/atom = 2.67675
Ave special neighs/atom = 5.925
Neighbor list builds = 1
Dangerous builds = 0
shell          head -n 2 Temp.txt | tail -n 1 >> Tempfile.txt
shell          head -n 2 Bond.txt | tail -n 1 >> Bondfile.txt
next           myTempStr
next           myBondStr
if "${myBond} <= 0" then "jump imdinput.txt nobonds"
jump           imdinput.txt loop2here

# specifies the run length in timesteps
run            2000
WARNING: Use special bonds = 0,1,1 with bond style fene (../bond_fene.cpp:188)
Memory usage per processor = 5.58492 Mbytes
Step Temp E_pair E_mol TotEng Press 
  576000 0.0008177425 4.3288036e-07    20.077492    20.078719 0.0070778146 
  576100 0.00074220344 2.8417415e-07    20.077372    20.078485 -0.013215875 
  576200 0.00065637254 2.0960411e-07     20.07729    20.078275 0.0014127468 
  576300 0.0006118212 1.3803848e-07    20.077168    20.078086 -0.011716061 
  576400 0.00054208377 1.0251484e-07    20.077101    20.077914 -0.00048383377 
  576500  0.000494175 1.1040629e-07    20.077018    20.077759 0.0011701395 
  576600 0.00044842563 7.7429822e-08    20.076947    20.077619 -0.0039508632 
  576700 0.00038569305 7.6275255e-08    20.076915    20.077494 0.00047139698 
  576800 0.00036364462 5.0930493e-08    20.076835     20.07738  0.012035298 
  576900 0.00032404316 4.8196672e-08    20.076791    20.077277 -0.0003903612 
  577000 0.00029079114 5.4753143e-08    20.076748    20.077184 0.0036549027 
  577100 0.00026326364 4.1713907e-08    20.076705      20.0771 0.0033379286 
  577200 0.00024119447 3.0823863e-08    20.076662    20.077024 -0.0060833566 
  577300 0.0002152856 2.8750271e-08    20.076633    20.076956 -0.00055464614 
  577400 0.00019729907 2.5490062e-08    20.076598    20.076893 -0.0032226738 
  577500 0.00017705029 9.4595066e-09    20.076572    20.076838 0.0013620751 
  577600 0.0001599183 1.6599425e-08    20.076547    20.076787   -0.0023591 
  577700 0.00014275884 6.992078e-09    20.076527    20.076741 -0.0014112473 
  577800 0.00013317183 5.0651298e-09      20.0765      20.0767 0.00068106938 
  577900 0.00011850466 4.8431608e-09    20.076485    20.076662  0.001591363 
  578000 0.00010755198 1.7114708e-09    20.076467    20.076628 -0.0021667468 
Loop time of 0.426516 on 4 procs (4 MPI x 1 OpenMP) for 2000 steps with 4000 atoms

Pair  time (%) = 0.0459059 (10.763)
Bond  time (%) = 0.0622989 (14.6065)
Neigh time (%) = 0 (0)
Comm  time (%) = 0.113251 (26.5525)
Outpt time (%) = 0.00104904 (0.245956)
Other time (%) = 0.204011 (47.832)

Nlocal:    1000 ave 1032 max 984 min
Histogram: 2 0 1 0 0 0 0 0 0 1
Nghost:    1051.25 ave 1072 max 1020 min
Histogram: 1 0 0 0 0 0 1 1 0 1
Neighs:    2677.25 ave 2928 max 2531 min
Histogram: 2 0 0 1 0 0 0 0 0 1

Total # of neighbors = 10709
Ave neighs/atom = 2.67725
Ave special neighs/atom = 5.925
Neighbor list builds = 0
Dangerous builds = 0
shell          head -n 2 Temp.txt | tail -n 1 >> Tempfile.txt
shell          head -n 2 Bond.txt | tail -n 1 >> Bondfile.txt
next           myTempStr
next           myBondStr
if "${myBond} <= 0" then "jump imdinput.txt nobonds"
jump           imdinput.txt loop2here

# specifies the run length in timesteps
run            2000
WARNING: Use special bonds = 0,1,1 with bond style fene (../bond_fene.cpp:188)
Memory usage per processor = 5.58517 Mbytes
Step Temp E_pair E_mol TotEng Press 
  578000 0.00010755198 1.7114708e-09    20.076467    20.076628 -0.0021667468 
  578100 9.5105239e-05 2.1221468e-09    20.076455    20.076598 0.00074794115 
  578200 8.5942307e-05 1.1917826e-09    20.076441     20.07657 0.0054145053 
  578300 8.0527429e-05 4.4641091e-10    20.076424    20.076545 -0.001353653 
  578400 7.0755764e-05 2.4088501e-09    20.076416    20.076522 -8.3380264e-05 
  578500 6.3603441e-05 3.3687813e-10    20.076406    20.076502 -8.2056954e-05 
  578600 5.8812122e-05 8.5639534e-10    20.076395    20.076483 0.0010968707 
  578700 5.2218727e-05 9.1728388e-11    20.076388    20.076467 -0.0017262914 
  578800 4.7895983e-05 8.2029536e-11     20.07638    20.076452 0.0010327425 
  578900 4.3194412e-05 7.9728077e-12    20.076373    20.076438 -0.0037101906 
  579000 3.9011754e-05 8.2000316e-11    20.076367    20.076425 -0.0018830961 
  579100 3.5136445e-05 9.2321677e-12    20.076362    20.076414 0.0025604334 
  579200 3.2312201e-05            0    20.076356    20.076404 -0.00042613259 
  579300 2.8928317e-05            0    20.076351    20.076395 0.0023357578 
  579400 2.6117245e-05            0    20.076347    20.076387 -0.00052482118 
  579500 2.3993586e-05            0    20.076343    20.076379 0.00085218927 
  579600 2.1398041e-05 1.5407959e-11     20.07634    20.076372 -0.0011855102 
  579700 1.9967979e-05            0    20.076336    20.076366  0.001997469 
  579800 1.7166845e-05 8.1798589e-12    20.076335    20.076361 -0.00090306758 
  579900 1.6120904e-05 1.0346333e-11    20.076331    20.076356 -0.00034485825 
  580000 1.4465423e-05 4.3163403e-13    20.076329    20.076351 0.00025492217 
Loop time of 0.422103 on 4 procs (4 MPI x 1 OpenMP) for 2000 steps with 4000 atoms

Pair  time (%) = 0.0445333 (10.5503)
Bond  time (%) = 0.0620228 (14.6937)
Neigh time (%) = 0 (0)
Comm  time (%) = 0.112904 (26.748)
Outpt time (%) = 0.000983238 (0.232938)
Other time (%) = 0.20166 (47.775)

Nlocal:    1000 ave 1033 max 983 min
Histogram: 2 0 0 1 0 0 0 0 0 1
Nghost:    1051.5 ave 1069 max 1021 min
Histogram: 1 0 0 0 0 0 0 1 1 1
Neighs:    2671.75 ave 2912 max 2524 min
Histogram: 2 0 0 0 1 0 0 0 0 1

Total # of neighbors = 10687
Ave neighs/atom = 2.67175
Ave special neighs/atom = 5.925
Neighbor list builds = 0
Dangerous builds = 0
shell          head -n 2 Temp.txt | tail -n 1 >> Tempfile.txt
shell          head -n 2 Bond.txt | tail -n 1 >> Bondfile.txt
next           myTempStr
next           myBondStr
if "${myBond} <= 0" then "jump imdinput.txt nobonds"
jump           imdinput.txt loop2here

# specifies the run length in timesteps
run            2000
WARNING: Use special bonds = 0,1,1 with bond style fene (../bond_fene.cpp:188)
Memory usage per processor = 5.58517 Mbytes
Step Temp E_pair E_mol TotEng Press 
  580000 1.4465423e-05 4.3163403e-13    20.076329    20.076351 0.00025492217 
  580100 1.2895292e-05 9.0877306e-16    20.076328    20.076347 -0.0012341574 
  580200 1.2008081e-05 1.8531812e-13    20.076325    20.076343 -0.00016763705 
  580300 1.0644317e-05            0    20.076324     20.07634 -0.0003836378 
  580400 9.6012474e-06            0    20.076322    20.076337 0.00041111003 
  580500 8.8648964e-06 9.5231742e-13    20.076321    20.076334 0.00073612084 
  580600 7.7518953e-06 2.7344793e-12     20.07632    20.076331 -0.00026447823 
  580700 7.3862063e-06            0    20.076318    20.076329 -0.0001776278 
  580800 6.3574331e-06            0    20.076318    20.076327 -2.6822383e-05 
  580900 5.9202906e-06            0    20.076316    20.076325 0.00023692794 
  581000 5.1873036e-06            0    20.076316    20.076324 0.0010580378 
  581100 4.8397836e-06            0    20.076315    20.076322 -0.00029356041 
  581200 4.3960123e-06            0    20.076314    20.076321 -0.00025231003 
  581300 3.9189042e-06            0    20.076314     20.07632 -0.00066111332 
  581400 3.5838494e-06            0    20.076313    20.076318 0.00021725391 
  581500 3.1512885e-06            0    20.076313    20.076317 -1.9947479e-05 
  581600 2.9107578e-06            0    20.076312    20.076316 0.00019009493 
  581700 2.6994229e-06            0    20.076312    20.076316 -0.00049919051 
  581800 2.3954643e-06            0    20.076311    20.076315 0.00040611865 
  581900 2.1548048e-06            0    20.076311    20.076314 -0.0002722282 
  582000 1.9214732e-06            0    20.076311    20.076314 0.00042010634 
Loop time of 0.420994 on 4 procs (4 MPI x 1 OpenMP) for 2000 steps with 4000 atoms

Pair  time (%) = 0.0441858 (10.4956)
Bond  time (%) = 0.0619619 (14.718)
Neigh time (%) = 0 (0)
Comm  time (%) = 0.112951 (26.8297)
Outpt time (%) = 0.000944197 (0.224278)
Other time (%) = 0.20095 (47.7324)

Nlocal:    1000 ave 1033 max 983 min
Histogram: 2 0 0 1 0 0 0 0 0 1
Nghost:    1051.5 ave 1069 max 1021 min
Histogram: 1 0 0 0 0 0 0 1 1 1
Neighs:    2671.25 ave 2910 max 2525 min
Histogram: 2 0 0 0 1 0 0 0 0 1

Total # of neighbors = 10685
Ave neighs/atom = 2.67125
Ave special neighs/atom = 5.925
Neighbor list builds = 0
Dangerous builds = 0
shell          head -n 2 Temp.txt | tail -n 1 >> Tempfile.txt
shell          head -n 2 Bond.txt | tail -n 1 >> Bondfile.txt
next           myTempStr
next           myBondStr
if "${myBond} <= 0" then "jump imdinput.txt nobonds"
jump           imdinput.txt loop2here

# specifies the run length in timesteps
run            2000
WARNING: Use special bonds = 0,1,1 with bond style fene (../bond_fene.cpp:188)
Memory usage per processor = 5.58517 Mbytes
Step Temp E_pair E_mol TotEng Press 
  582000 1.9214732e-06            0    20.076311    20.076314 0.00042010634 
  582100 1.7713384e-06            0     20.07631    20.076313 -6.2047297e-05 
  582200 1.5901173e-06            0     20.07631    20.076313 -6.7104987e-05 
  582300 1.4440242e-06            0     20.07631    20.076312 -0.00019862592 
  582400 1.3726936e-06            0     20.07631    20.076312 -0.00039325164 
  582500 1.1744435e-06            0     20.07631    20.076311 0.00069412546 
  582600 1.0710974e-06            0    20.076309    20.076311 -0.0001305756 
  582700 9.7651665e-07            0    20.076309    20.076311 5.8101296e-05 
  582800 8.8594906e-07            0    20.076309     20.07631 0.0001136586 
  582900 7.7963962e-07            0    20.076309     20.07631 -2.2367215e-05 
  583000 7.1705969e-07            0    20.076309     20.07631 -2.7419856e-05 
  583100 6.6303606e-07            0    20.076309     20.07631 -0.00022041705 
  583200 5.6812928e-07            0    20.076309    20.076309 -1.9976397e-05 
  583300 5.3198086e-07            0    20.076309    20.076309 -0.00017486919 
  583400 4.9556836e-07            0    20.076308    20.076309 0.00015716052 
  583500 4.2745725e-07            0    20.076308    20.076309 0.0003257128 
  583600 4.0012729e-07            0    20.076308    20.076309 -0.00013939765 
  583700 3.5290346e-07            0    20.076308    20.076309 3.4999276e-05 
  583800 3.247398e-07            0    20.076308    20.076309 -4.7938363e-05 
  583900 2.9572512e-07            0    20.076308    20.076309 -2.525788e-05 
  584000 2.5872062e-07            0    20.076308    20.076309 -7.0793016e-06 
Loop time of 0.421712 on 4 procs (4 MPI x 1 OpenMP) for 2000 steps with 4000 atoms

Pair  time (%) = 0.0442266 (10.4874)
Bond  time (%) = 0.0621037 (14.7266)
Neigh time (%) = 0 (0)
Comm  time (%) = 0.112896 (26.7709)
Outpt time (%) = 0.000959814 (0.227599)
Other time (%) = 0.201526 (47.7876)

Nlocal:    1000 ave 1033 max 983 min
Histogram: 2 0 0 1 0 0 0 0 0 1
Nghost:    1052 ave 1070 max 1021 min
Histogram: 1 0 0 0 0 0 1 0 1 1
Neighs:    2671 ave 2909 max 2524 min
Histogram: 2 0 0 0 1 0 0 0 0 1

Total # of neighbors = 10684
Ave neighs/atom = 2.671
Ave special neighs/atom = 5.925
Neighbor list builds = 0
Dangerous builds = 0
shell          head -n 2 Temp.txt | tail -n 1 >> Tempfile.txt
shell          head -n 2 Bond.txt | tail -n 1 >> Bondfile.txt
next           myTempStr
next           myBondStr
if "${myBond} <= 0" then "jump imdinput.txt nobonds"
jump           imdinput.txt loop2here

# specifies the run length in timesteps
run            2000
WARNING: Use special bonds = 0,1,1 with bond style fene (../bond_fene.cpp:188)
Memory usage per processor = 5.58517 Mbytes
Step Temp E_pair E_mol TotEng Press 
  584000 2.5872062e-07            0    20.076308    20.076309 -7.0793016e-06 
  584100 2.4389482e-07            0    20.076308    20.076308 -0.0001201533 
  584200 2.1644415e-07            0    20.076308    20.076308 -4.3347702e-06 
  584300 1.940145e-07            0    20.076308    20.076308 0.00010676115 
  584400 1.7819119e-07            0    20.076308    20.076308 -6.6996429e-05 
  584500 1.5776094e-07            0    20.076308    20.076308 0.00010889885 
  584600 1.4719206e-07            0    20.076308    20.076308 -5.0438718e-05 
  584700 1.3497474e-07            0    20.076308    20.076308 -7.7947801e-05 
  584800 1.1779634e-07            0    20.076308    20.076308 -4.1329733e-05 
  584900 1.0617195e-07            0    20.076308    20.076308 8.2961383e-05 
  585000 9.5691973e-08            0    20.076308    20.076308 7.2230841e-05 
  585100 8.7595938e-08            0    20.076308    20.076308 -3.7201547e-05 
  585200 7.6785506e-08            0    20.076308    20.076308 0.00011156908 
  585300 7.1165313e-08            0    20.076308    20.076308 -5.8071304e-05 
  585400 6.432642e-08            0    20.076308    20.076308 5.1817319e-05 
  585500 5.8954759e-08            0    20.076308    20.076308 -8.7805513e-05 
  585600 5.4890662e-08            0    20.076308    20.076308 2.3664666e-05 
  585700 4.711463e-08            0    20.076308    20.076308 -6.1475518e-05 
  585800 4.1889294e-08            0    20.076308    20.076308 -6.3757569e-05 
  585900 3.9251534e-08            0    20.076308    20.076308 2.4723084e-05 
  586000 3.5726816e-08            0    20.076308    20.076308 3.9268399e-05 
Loop time of 0.423058 on 4 procs (4 MPI x 1 OpenMP) for 2000 steps with 4000 atoms

Pair  time (%) = 0.0442862 (10.4681)
Bond  time (%) = 0.061817 (14.6119)
Neigh time (%) = 0 (0)
Comm  time (%) = 0.113523 (26.8339)
Outpt time (%) = 0.00093478 (0.220958)
Other time (%) = 0.202497 (47.8651)

Nlocal:    1000 ave 1033 max 983 min
Histogram: 2 0 0 1 0 0 0 0 0 1
Nghost:    1052 ave 1070 max 1021 min
Histogram: 1 0 0 0 0 0 1 0 1 1
Neighs:    2671 ave 2909 max 2525 min
Histogram: 2 0 0 0 1 0 0 0 0 1

Total # of neighbors = 10684
Ave neighs/atom = 2.671
Ave special neighs/atom = 5.925
Neighbor list builds = 0
Dangerous builds = 0
shell          head -n 2 Temp.txt | tail -n 1 >> Tempfile.txt
shell          head -n 2 Bond.txt | tail -n 1 >> Bondfile.txt
next           myTempStr
next           myBondStr
if "${myBond} <= 0" then "jump imdinput.txt nobonds"
jump           imdinput.txt loop2here

# specifies the run length in timesteps
run            2000
WARNING: Use special bonds = 0,1,1 with bond style fene (../bond_fene.cpp:188)
Memory usage per processor = 5.58517 Mbytes
Step Temp E_pair E_mol TotEng Press 
  586000 3.5726816e-08            0    20.076308    20.076308 3.9268399e-05 
  586100 3.2746997e-08            0    20.076308    20.076308 8.884823e-06 
  586200 2.9382522e-08            0    20.076308    20.076308 4.3973912e-05 
  586300 2.6496151e-08            0    20.076308    20.076308 -4.3791379e-06 
  586400 2.4658142e-08            0    20.076308    20.076308 -3.5024848e-05 
  586500 2.1471761e-08            0    20.076308    20.076308 1.0746994e-05 
  586600 2.0057186e-08            0    20.076308    20.076308 -3.1235756e-05 
  586700 1.7420807e-08            0    20.076308    20.076308 2.9270497e-05 
  586800 1.5790277e-08            0    20.076308    20.076308 6.7644863e-06 
  586900 1.4324167e-08            0    20.076308    20.076308 1.6626537e-05 
  587000 1.342981e-08            0    20.076308    20.076308 -2.0957321e-05 
  587100 1.1720085e-08            0    20.076308    20.076308 1.6432647e-05 
  587200 1.0648526e-08            0    20.076308    20.076308 -5.3635834e-05 
  587300 9.9407177e-09            0    20.076308    20.076308 2.8615869e-05 
  587400 8.6070247e-09            0    20.076308    20.076308 3.0184705e-06 
  587500 7.6338903e-09            0    20.076308    20.076308 -1.4478018e-05 
  587600 7.382487e-09            0    20.076308    20.076308 5.2300919e-06 
  587700 6.3576239e-09            0    20.076308    20.076308 1.3362314e-05 
  587800 5.7868609e-09            0    20.076308    20.076308 -1.2988993e-05 
  587900 5.3539105e-09            0    20.076308    20.076308 3.0827827e-05 
  588000 4.7985042e-09            0    20.076308    20.076308 -5.5019998e-06 
Loop time of 0.424114 on 4 procs (4 MPI x 1 OpenMP) for 2000 steps with 4000 atoms

Pair  time (%) = 0.044427 (10.4753)
Bond  time (%) = 0.0617701 (14.5645)
Neigh time (%) = 0 (0)
Comm  time (%) = 0.112623 (26.5549)
Outpt time (%) = 0.00101328 (0.238916)
Other time (%) = 0.204281 (48.1665)

Nlocal:    1000 ave 1033 max 983 min
Histogram: 2 0 0 1 0 0 0 0 0 1
Nghost:    1052 ave 1070 max 1021 min
Histogram: 1 0 0 0 0 0 1 0 1 1
Neighs:    2671 ave 2909 max 2525 min
Histogram: 2 0 0 0 1 0 0 0 0 1

Total # of neighbors = 10684
Ave neighs/atom = 2.671
Ave special neighs/atom = 5.925
Neighbor list builds = 0
Dangerous builds = 0
shell          head -n 2 Temp.txt | tail -n 1 >> Tempfile.txt
shell          head -n 2 Bond.txt | tail -n 1 >> Bondfile.txt
next           myTempStr
next           myBondStr
if "${myBond} <= 0" then "jump imdinput.txt nobonds"
jump           imdinput.txt loop2here

# specifies the run length in timesteps
run            2000
WARNING: Use special bonds = 0,1,1 with bond style fene (../bond_fene.cpp:188)
Memory usage per processor = 5.58517 Mbytes
Step Temp E_pair E_mol TotEng Press 
  588000 4.7985042e-09            0    20.076308    20.076308 -5.5019998e-06 
  588100 4.3566549e-09            0    20.076308    20.076308 -2.5015663e-05 
  588200 3.8468413e-09            0    20.076308    20.076308 2.5264823e-05 
  588300 3.5939829e-09            0    20.076308    20.076308 2.2339734e-06 
  588400 3.2437707e-09            0    20.076308    20.076308 -1.5347698e-05 
  588500 2.9691699e-09            0    20.076308    20.076308 1.7239406e-05 
  588600 2.6727442e-09            0    20.076308    20.076308 -3.3142298e-05 
  588700 2.3416091e-09            0    20.076308    20.076308 8.9744331e-06 
  588800 2.1605128e-09            0    20.076308    20.076308 5.6949953e-06 
  588900 1.9543183e-09            0    20.076308    20.076308 -3.73581e-06 
  589000 1.776861e-09            0    20.076308    20.076308 1.6865377e-06 
  589100 1.6016209e-09            0    20.076308    20.076308 -4.1120687e-08 
  589200 1.440419e-09            0    20.076308    20.076308 -9.5064904e-06 
  589300 1.3165392e-09            0    20.076308    20.076308 -8.9195099e-06 
  589400 1.1636543e-09            0    20.076308    20.076308 1.8918651e-05 
  589500 1.0555624e-09            0    20.076308    20.076308 -3.1187226e-06 
  589600 9.4888914e-10            0    20.076308    20.076308 1.4775359e-05 
  589700 8.8233695e-10            0    20.076308    20.076308 -1.1997154e-05 
  589800 7.990216e-10            0    20.076308    20.076308 1.0080207e-05 
  589900 7.0916234e-10            0    20.076308    20.076308 -7.3356648e-06 
  590000  6.32168e-10            0    20.076308    20.076308 5.5355852e-06 
Loop time of 0.425675 on 4 procs (4 MPI x 1 OpenMP) for 2000 steps with 4000 atoms

Pair  time (%) = 0.0448164 (10.5283)
Bond  time (%) = 0.0617957 (14.5171)
Neigh time (%) = 0 (0)
Comm  time (%) = 0.111949 (26.2991)
Outpt time (%) = 0.00107199 (0.251833)
Other time (%) = 0.206042 (48.4037)

Nlocal:    1000 ave 1033 max 983 min
Histogram: 2 0 0 1 0 0 0 0 0 1
Nghost:    1052 ave 1070 max 1021 min
Histogram: 1 0 0 0 0 0 1 0 1 1
Neighs:    2671 ave 2909 max 2525 min
Histogram: 2 0 0 0 1 0 0 0 0 1

Total # of neighbors = 10684
Ave neighs/atom = 2.671
Ave special neighs/atom = 5.925
Neighbor list builds = 0
Dangerous builds = 0
shell          head -n 2 Temp.txt | tail -n 1 >> Tempfile.txt
shell          head -n 2 Bond.txt | tail -n 1 >> Bondfile.txt
next           myTempStr
next           myBondStr
if "${myBond} <= 0" then "jump imdinput.txt nobonds"
jump           imdinput.txt loop2here

# specifies the run length in timesteps
run            2000
WARNING: Use special bonds = 0,1,1 with bond style fene (../bond_fene.cpp:188)
Memory usage per processor = 5.58517 Mbytes
Step Temp E_pair E_mol TotEng Press 
  590000  6.32168e-10            0    20.076308    20.076308 5.5355852e-06 
  590100 5.9187558e-10            0    20.076308    20.076308 5.7905464e-07 
  590200 5.4154642e-10            0    20.076308    20.076308 -4.0686596e-06 
  590300 4.8696855e-10            0    20.076308    20.076308 -6.2251094e-06 
  590400 4.3622964e-10            0    20.076308    20.076308 -9.9201301e-07 
  590500 3.8060039e-10            0    20.076308    20.076308 3.0634474e-06 
  590600 3.5551108e-10            0    20.076308    20.076308 -1.9556097e-07 
  590700 3.2025211e-10            0    20.076308    20.076308 3.5976835e-06 
  590800 2.9266179e-10            0    20.076308    20.076308 -3.6345547e-08 
  590900 2.6994303e-10            0    20.076308    20.076308 -2.0455916e-06 
  591000 2.4271281e-10            0    20.076308    20.076308 -1.8468747e-06 
  591100 2.157462e-10            0    20.076308    20.076308 -5.9604046e-07 
  591200 1.9389621e-10            0    20.076308    20.076308 -2.1479599e-06 
  591300 1.7993292e-10            0    20.076308    20.076308 -1.1663315e-06 
  591400 1.6237569e-10            0    20.076308    20.076308 6.6679342e-06 
  591500 1.4044077e-10            0    20.076308    20.076308 -8.0395651e-07 
  591600 1.305856e-10            0    20.076308    20.076308 2.7101201e-06 
  591700 1.2003165e-10            0    20.076308    20.076308 2.6572167e-06 
  591800 1.0666892e-10            0    20.076308    20.076308 -7.1470896e-06 
  591900 9.6539148e-11            0    20.076308    20.076308 -1.4704092e-06 
  592000 8.7253614e-11            0    20.076308    20.076308 1.1137774e-06 
Loop time of 0.425447 on 4 procs (4 MPI x 1 OpenMP) for 2000 steps with 4000 atoms

Pair  time (%) = 0.0445532 (10.4721)
Bond  time (%) = 0.0616913 (14.5003)
Neigh time (%) = 0 (0)
Comm  time (%) = 0.111957 (26.3151)
Outpt time (%) = 0.00105023 (0.246854)
Other time (%) = 0.206196 (48.4656)

Nlocal:    1000 ave 1033 max 983 min
Histogram: 2 0 0 1 0 0 0 0 0 1
Nghost:    1052 ave 1070 max 1021 min
Histogram: 1 0 0 0 0 0 1 0 1 1
Neighs:    2671 ave 2909 max 2525 min
Histogram: 2 0 0 0 1 0 0 0 0 1

Total # of neighbors = 10684
Ave neighs/atom = 2.671
Ave special neighs/atom = 5.925
Neighbor list builds = 0
Dangerous builds = 0
shell          head -n 2 Temp.txt | tail -n 1 >> Tempfile.txt
shell          head -n 2 Bond.txt | tail -n 1 >> Bondfile.txt
next           myTempStr
next           myBondStr
if "${myBond} <= 0" then "jump imdinput.txt nobonds"
jump           imdinput.txt loop2here

# specifies the run length in timesteps
run            2000
WARNING: Use special bonds = 0,1,1 with bond style fene (../bond_fene.cpp:188)
Memory usage per processor = 5.58517 Mbytes
Step Temp E_pair E_mol TotEng Press 
  592000 8.7253614e-11            0    20.076308    20.076308 1.1137774e-06 
  592100 8.0079528e-11            0    20.076308    20.076308 -4.7253859e-07 
  592200 7.108299e-11            0    20.076308    20.076308 5.293535e-07 
  592300 6.4962831e-11            0    20.076308    20.076308 1.1677321e-06 
  592400 5.8229844e-11            0    20.076308    20.076308 2.2931036e-06 
  592500 5.2909547e-11            0    20.076308    20.076308 -5.3648211e-07 
  592600 5.005945e-11            0    20.076308    20.076308 1.0033158e-07 
  592700 4.3442526e-11            0    20.076308    20.076308 8.7908209e-07 
  592800 3.9924177e-11            0    20.076308    20.076308 1.0767535e-06 
  592900 3.5621554e-11            0    20.076308    20.076308 -2.5162662e-06 
  593000 3.2458645e-11            0    20.076308    20.076308 -1.7384666e-06 
  593100 2.9859826e-11            0    20.076308    20.076308 -1.1611987e-06 
  593200 2.6080086e-11            0    20.076308    20.076308 -2.0478144e-06 
  593300 2.4605615e-11            0    20.076308    20.076308 1.7218005e-06 
  593400 2.117885e-11            0    20.076308    20.076308 2.2119656e-06 
  593500 1.8672648e-11            0    20.076308    20.076308 7.5321396e-07 
  593600 1.7603285e-11            0    20.076308    20.076308 -2.5914673e-07 
  593700 1.6317597e-11            0    20.076308    20.076308 1.3266628e-06 
  593800 1.4319787e-11            0    20.076308    20.076308 -2.3715774e-08 
  593900 1.3014064e-11            0    20.076308    20.076308 -1.5610916e-06 
  594000 1.1805822e-11            0    20.076308    20.076308 -1.0861524e-06 
Loop time of 0.422375 on 4 procs (4 MPI x 1 OpenMP) for 2000 steps with 4000 atoms

Pair  time (%) = 0.0444431 (10.5222)
Bond  time (%) = 0.0617746 (14.6255)
Neigh time (%) = 0 (0)
Comm  time (%) = 0.111626 (26.4282)
Outpt time (%) = 0.00111556 (0.264116)
Other time (%) = 0.203415 (48.1599)

Nlocal:    1000 ave 1033 max 983 min
Histogram: 2 0 0 1 0 0 0 0 0 1
Nghost:    1052 ave 1070 max 1021 min
Histogram: 1 0 0 0 0 0 1 0 1 1
Neighs:    2671 ave 2909 max 2525 min
Histogram: 2 0 0 0 1 0 0 0 0 1

Total # of neighbors = 10684
Ave neighs/atom = 2.671
Ave special neighs/atom = 5.925
Neighbor list builds = 0
Dangerous builds = 0
shell          head -n 2 Temp.txt | tail -n 1 >> Tempfile.txt
shell          head -n 2 Bond.txt | tail -n 1 >> Bondfile.txt
next           myTempStr
next           myBondStr
if "${myBond} <= 0" then "jump imdinput.txt nobonds"
jump           imdinput.txt loop2here

# specifies the run length in timesteps
run            2000
WARNING: Use special bonds = 0,1,1 with bond style fene (../bond_fene.cpp:188)
Memory usage per processor = 5.58517 Mbytes
Step Temp E_pair E_mol TotEng Press 
  594000 1.1805822e-11            0    20.076308    20.076308 -1.0861524e-06 
  594100 1.0502234e-11            0    20.076308    20.076308 6.8915448e-07 
  594200 9.966896e-12            0    20.076308    20.076308 -1.2566582e-07 
  594300 8.7613976e-12            0    20.076308    20.076308 4.6017296e-07 
  594400 7.7455917e-12            0    20.076308    20.076308 1.008901e-07 
  594500 7.1027665e-12            0    20.076308    20.076308 2.9712511e-07 
  594600 6.5023362e-12            0    20.076308    20.076308 -6.125765e-07 
  594700 5.9954712e-12            0    20.076308    20.076308 -2.8999941e-07 
  594800 5.359062e-12            0    20.076308    20.076308 3.1668249e-07 
  594900 4.7646976e-12            0    20.076308    20.076308 4.0123956e-07 
  595000 4.4112425e-12            0    20.076308    20.076308 -5.2312539e-07 
  595100 3.9231978e-12            0    20.076308    20.076308 2.4310067e-07 
  595200 3.704948e-12            0    20.076308    20.076308 -5.0835448e-07 
  595300 3.2719394e-12            0    20.076308    20.076308 5.7660729e-07 
  595400 2.899265e-12            0    20.076308    20.076308 6.3258157e-07 
  595500 2.6748863e-12            0    20.076308    20.076308 -2.0178968e-07 
  595600 2.4131804e-12            0    20.076308    20.076308 -2.5686863e-07 
  595700 2.166315e-12            0    20.076308    20.076308 -5.8315944e-08 
  595800 1.9571115e-12            0    20.076308    20.076308 -2.9660497e-07 
  595900 1.7798652e-12            0    20.076308    20.076308 -2.2682858e-07 
  596000 1.5959362e-12            0    20.076308    20.076308 -1.0797154e-07 
Loop time of 0.422132 on 4 procs (4 MPI x 1 OpenMP) for 2000 steps with 4000 atoms

Pair  time (%) = 0.0445474 (10.553)
Bond  time (%) = 0.0618715 (14.6569)
Neigh time (%) = 0 (0)
Comm  time (%) = 0.111648 (26.4486)
Outpt time (%) = 0.00111502 (0.264141)
Other time (%) = 0.20295 (48.0773)

Nlocal:    1000 ave 1033 max 983 min
Histogram: 2 0 0 1 0 0 0 0 0 1
Nghost:    1052 ave 1070 max 1021 min
Histogram: 1 0 0 0 0 0 1 0 1 1
Neighs:    2671 ave 2909 max 2525 min
Histogram: 2 0 0 0 1 0 0 0 0 1

Total # of neighbors = 10684
Ave neighs/atom = 2.671
Ave special neighs/atom = 5.925
Neighbor list builds = 0
Dangerous builds = 0
shell          head -n 2 Temp.txt | tail -n 1 >> Tempfile.txt
shell          head -n 2 Bond.txt | tail -n 1 >> Bondfile.txt
next           myTempStr
next           myBondStr
if "${myBond} <= 0" then "jump imdinput.txt nobonds"
jump           imdinput.txt loop2here

# specifies the run length in timesteps
run            2000
WARNING: Use special bonds = 0,1,1 with bond style fene (../bond_fene.cpp:188)
Memory usage per processor = 5.58517 Mbytes
Step Temp E_pair E_mol TotEng Press 
  596000 1.5959362e-12            0    20.076308    20.076308 -1.0797154e-07 
  596100 1.396641e-12            0    20.076308    20.076308 3.8780244e-07 
  596200 1.3248556e-12            0    20.076308    20.076308 -6.3009688e-08 
  596300 1.1650172e-12            0    20.076308    20.076308 1.0916831e-07 
  596400 1.0862643e-12            0    20.076308    20.076308 2.395013e-07 
  596500 9.5864201e-13            0    20.076308    20.076308 1.0416175e-07 
  596600 8.9344629e-13            0    20.076308    20.076308 -3.8137358e-07 
  596700 8.2210869e-13            0    20.076308    20.076308 -5.8437044e-08 
  596800 7.1650356e-13            0    20.076308    20.076308 -1.5469677e-08 
  596900 6.5092053e-13            0    20.076308    20.076308 -9.557912e-08 
  597000 5.8555837e-13            0    20.076308    20.076308 1.036433e-07 
  597100 5.339153e-13            0    20.076308    20.076308 1.0470336e-07 
  597200 4.8270896e-13            0    20.076308    20.076308 3.2536261e-07 
  597300 4.3072862e-13            0    20.076308    20.076308 -1.7316124e-07 
  597400 3.9241881e-13            0    20.076308    20.076308 1.2752038e-07 
  597500 3.5875049e-13            0    20.076308    20.076308 -1.8086276e-07 
  597600 3.2925621e-13            0    20.076308    20.076308 -1.6856652e-07 
  597700 2.9164428e-13            0    20.076308    20.076308 1.1658713e-07 
  597800 2.6730966e-13            0    20.076308    20.076308 -4.6256646e-08 
  597900 2.4040518e-13            0    20.076308    20.076308 2.0050443e-08 
  598000 2.150277e-13            0    20.076308    20.076308 -1.4095628e-07 
Loop time of 0.421742 on 4 procs (4 MPI x 1 OpenMP) for 2000 steps with 4000 atoms

Pair  time (%) = 0.0446393 (10.5845)
Bond  time (%) = 0.0619887 (14.6983)
Neigh time (%) = 0 (0)
Comm  time (%) = 0.111775 (26.5032)
Outpt time (%) = 0.00111449 (0.264258)
Other time (%) = 0.202224 (47.9497)

Nlocal:    1000 ave 1033 max 983 min
Histogram: 2 0 0 1 0 0 0 0 0 1
Nghost:    1052 ave 1070 max 1021 min
Histogram: 1 0 0 0 0 0 1 0 1 1
Neighs:    2671 ave 2909 max 2525 min
Histogram: 2 0 0 0 1 0 0 0 0 1

Total # of neighbors = 10684
Ave neighs/atom = 2.671
Ave special neighs/atom = 5.925
Neighbor list builds = 0
Dangerous builds = 0
shell          head -n 2 Temp.txt | tail -n 1 >> Tempfile.txt
shell          head -n 2 Bond.txt | tail -n 1 >> Bondfile.txt
next           myTempStr
next           myBondStr
if "${myBond} <= 0" then "jump imdinput.txt nobonds"
jump           imdinput.txt loop2here

# specifies the run length in timesteps
run            2000
WARNING: Use special bonds = 0,1,1 with bond style fene (../bond_fene.cpp:188)
Memory usage per processor = 5.58517 Mbytes
Step Temp E_pair E_mol TotEng Press 
  598000 2.150277e-13            0    20.076308    20.076308 -1.4095628e-07 
  598100 2.0074377e-13            0    20.076308    20.076308 2.7781181e-08 
  598200 1.7900916e-13            0    20.076308    20.076308 -1.0816656e-07 
  598300 1.5948711e-13            0    20.076308    20.076308 2.044417e-07 
  598400 1.4642457e-13            0    20.076308    20.076308 -1.2802079e-08 
  598500 1.3100758e-13            0    20.076308    20.076308 9.4557891e-08 
  598600 1.159818e-13            0    20.076308    20.076308 -1.9024755e-08 
  598700 1.0996495e-13            0    20.076308    20.076308 7.9835566e-08 
  598800 9.6990056e-14            0    20.076308    20.076308 5.0990338e-08 
  598900 8.9053071e-14            0    20.076308    20.076308 -7.6807092e-08 
  599000 7.982573e-14            0    20.076308    20.076308 -9.4935829e-08 
  599100 7.1791806e-14            0    20.076308    20.076308 -5.4746237e-08 
  599200 6.7439834e-14            0    20.076308    20.076308 2.6036905e-08 
  599300 5.9621036e-14            0    20.076308    20.076308 -2.003898e-08 
  599400 5.3042794e-14            0    20.076308    20.076308 -6.5592059e-08 
  599500 4.8691354e-14            0    20.076308    20.076308 2.3968743e-08 
  599600 4.3686425e-14            0    20.076308    20.076308 3.5780404e-08 
  599700 3.9793318e-14            0    20.076308    20.076308 1.1037479e-07 
  599800 3.6307746e-14            0    20.076308    20.076308 -3.217376e-08 
  599900 3.2487475e-14            0    20.076308    20.076308 4.6926426e-09 
  600000 2.9144537e-14            0    20.076308    20.076308 -3.6393681e-08 
Loop time of 0.421247 on 4 procs (4 MPI x 1 OpenMP) for 2000 steps with 4000 atoms

Pair  time (%) = 0.0446823 (10.6071)
Bond  time (%) = 0.0618267 (14.6771)
Neigh time (%) = 0 (0)
Comm  time (%) = 0.111656 (26.506)
Outpt time (%) = 0.00107813 (0.255937)
Other time (%) = 0.202004 (47.9539)

Nlocal:    1000 ave 1033 max 983 min
Histogram: 2 0 0 1 0 0 0 0 0 1
Nghost:    1052 ave 1070 max 1021 min
Histogram: 1 0 0 0 0 0 1 0 1 1
Neighs:    2671 ave 2909 max 2525 min
Histogram: 2 0 0 0 1 0 0 0 0 1

Total # of neighbors = 10684
Ave neighs/atom = 2.671
Ave special neighs/atom = 5.925
Neighbor list builds = 0
Dangerous builds = 0
shell          head -n 2 Temp.txt | tail -n 1 >> Tempfile.txt
shell          head -n 2 Bond.txt | tail -n 1 >> Bondfile.txt
next           myTempStr
next           myBondStr
if "${myBond} <= 0" then "jump imdinput.txt nobonds"
jump           imdinput.txt loop2here

# specifies the run length in timesteps
run            2000
WARNING: Use special bonds = 0,1,1 with bond style fene (../bond_fene.cpp:188)
Memory usage per processor = 5.58517 Mbytes
Step Temp E_pair E_mol TotEng Press 
  600000 2.9144537e-14            0    20.076308    20.076308 -3.6393681e-08 
  600100 2.6587416e-14            0    20.076308    20.076308 -2.7595813e-08 
  600200 2.4509468e-14            0    20.076308    20.076308 8.7363285e-10 
  600300 2.1551286e-14            0    20.076308    20.076308 4.0335061e-08 
  600400 1.9827328e-14            0    20.076308    20.076308 9.3429153e-09 
  600500 1.7724158e-14            0    20.076308    20.076308 2.135391e-08 
  600600 1.5958447e-14            0    20.076308    20.076308 -1.3789343e-08 
  600700 1.4883864e-14            0    20.076308    20.076308 1.3558655e-08 
  600800 1.333822e-14            0    20.076308    20.076308 -5.2653257e-10 
  600900 1.2155288e-14            0    20.076308    20.076308 -1.9883724e-08 
  601000 1.0497844e-14            0    20.076308    20.076308 -2.6304392e-08 
  601100 9.6316746e-15            0    20.076308    20.076308 -2.3145345e-08 
  601200 8.9699208e-15            0    20.076308    20.076308 -1.6673207e-08 
  601300 8.0525275e-15            0    20.076308    20.076308 -2.2139196e-08 
  601400 7.2467784e-15            0    20.076308    20.076308 3.3435526e-09 
  601500 6.4910678e-15            0    20.076308    20.076308 6.1770153e-08 
  601600 5.8926038e-15            0    20.076308    20.076308 1.8846773e-08 
  601700 5.3959688e-15            0    20.076308    20.076308 8.3286944e-09 
  601800 4.8166444e-15            0    20.076308    20.076308 -9.396099e-09 
  601900 4.3884666e-15            0    20.076308    20.076308 1.5266846e-08 
  602000 4.0034502e-15            0    20.076308    20.076308 -1.4267222e-08 
Loop time of 0.42158 on 4 procs (4 MPI x 1 OpenMP) for 2000 steps with 4000 atoms

Pair  time (%) = 0.0446025 (10.5798)
Bond  time (%) = 0.0619084 (14.6849)
Neigh time (%) = 0 (0)
Comm  time (%) = 0.111773 (26.5128)
Outpt time (%) = 0.00109887 (0.260656)
Other time (%) = 0.202197 (47.9618)

Nlocal:    1000 ave 1033 max 983 min
Histogram: 2 0 0 1 0 0 0 0 0 1
Nghost:    1052 ave 1070 max 1021 min
Histogram: 1 0 0 0 0 0 1 0 1 1
Neighs:    2671 ave 2909 max 2525 min
Histogram: 2 0 0 0 1 0 0 0 0 1

Total # of neighbors = 10684
Ave neighs/atom = 2.671
Ave special neighs/atom = 5.925
Neighbor list builds = 0
Dangerous builds = 0
shell          head -n 2 Temp.txt | tail -n 1 >> Tempfile.txt
shell          head -n 2 Bond.txt | tail -n 1 >> Bondfile.txt
next           myTempStr
next           myBondStr
if "${myBond} <= 0" then "jump imdinput.txt nobonds"
jump           imdinput.txt loop2here

# specifies the run length in timesteps
run            2000
WARNING: Use special bonds = 0,1,1 with bond style fene (../bond_fene.cpp:188)
Memory usage per processor = 5.58517 Mbytes
Step Temp E_pair E_mol TotEng Press 
  602000 4.0034502e-15            0    20.076308    20.076308 -1.4267222e-08 
  602100 3.5225183e-15            0    20.076308    20.076308 7.3699974e-09 
  602200 3.2016305e-15            0    20.076308    20.076308 -1.2340728e-08 
  602300 3.0524986e-15            0    20.076308    20.076308 -2.2765637e-08 
  602400 2.6269043e-15            0    20.076308    20.076308 4.3403597e-09 
  602500 2.4070481e-15            0    20.076308    20.076308 -1.1226728e-08 
  602600 2.1297909e-15            0    20.076308    20.076308 1.8171212e-08 
  602700 1.976311e-15            0    20.076308    20.076308 8.426119e-09 
  602800 1.8171823e-15            0    20.076308    20.076308 -3.0243029e-09 
  602900 1.5861598e-15            0    20.076308    20.076308 -1.4490311e-08 
  603000 1.4763483e-15            0    20.076308    20.076308 -4.4473539e-09 
  603100 1.2811824e-15            0    20.076308    20.076308 1.6365695e-08 
  603200 1.1753901e-15            0    20.076308    20.076308 -6.4191341e-10 
  603300 1.088728e-15            0    20.076308    20.076308 -8.9536454e-09 
  603400 9.9217302e-16            0    20.076308    20.076308 6.4538732e-09 
  603500 8.9935707e-16            0    20.076308    20.076308 -1.2984726e-09 
  603600 7.7730676e-16            0    20.076308    20.076308 6.250572e-09 
  603700 7.2208722e-16            0    20.076308    20.076308 7.6708087e-09 
  603800 6.6509142e-16            0    20.076308    20.076308 -6.4327396e-09 
  603900 5.9643257e-16            0    20.076308    20.076308 -8.8993049e-10 
  604000 5.3485056e-16            0    20.076308    20.076308 -6.4536576e-09 
Loop time of 0.422 on 4 procs (4 MPI x 1 OpenMP) for 2000 steps with 4000 atoms

Pair  time (%) = 0.0447024 (10.593)
Bond  time (%) = 0.061954 (14.6811)
Neigh time (%) = 0 (0)
Comm  time (%) = 0.111699 (26.469)
Outpt time (%) = 0.00110441 (0.26171)
Other time (%) = 0.20254 (47.9953)

Nlocal:    1000 ave 1033 max 983 min
Histogram: 2 0 0 1 0 0 0 0 0 1
Nghost:    1052 ave 1070 max 1021 min
Histogram: 1 0 0 0 0 0 1 0 1 1
Neighs:    2671 ave 2909 max 2525 min
Histogram: 2 0 0 0 1 0 0 0 0 1

Total # of neighbors = 10684
Ave neighs/atom = 2.671
Ave special neighs/atom = 5.925
Neighbor list builds = 0
Dangerous builds = 0
shell          head -n 2 Temp.txt | tail -n 1 >> Tempfile.txt
shell          head -n 2 Bond.txt | tail -n 1 >> Bondfile.txt
next           myTempStr
next           myBondStr
if "${myBond} <= 0" then "jump imdinput.txt nobonds"
jump           imdinput.txt loop2here

# specifies the run length in timesteps
run            2000
WARNING: Use special bonds = 0,1,1 with bond style fene (../bond_fene.cpp:188)
Memory usage per processor = 5.58517 Mbytes
Step Temp E_pair E_mol TotEng Press 
  604000 5.3485056e-16            0    20.076308    20.076308 -6.4536576e-09 
  604100 4.803272e-16            0    20.076308    20.076308 -6.927641e-09 
  604200 4.3803697e-16            0    20.076308    20.076308 3.6943445e-09 
  604300 4.0688355e-16            0    20.076308    20.076308 3.8120958e-09 
  604400 3.6081046e-16            0    20.076308    20.076308 -1.6986375e-09 
  604500 3.2724356e-16            0    20.076308    20.076308 7.7552326e-09 
  604600 2.8294763e-16            0    20.076308    20.076308 2.2817676e-09 
  604700 2.7069929e-16            0    20.076308    20.076308 -6.0936891e-09 
  604800 2.4600922e-16            0    20.076308    20.076308 -1.2157979e-10 
  604900 2.1483794e-16            0    20.076308    20.076308 -6.4735583e-10 
  605000 1.9881755e-16            0    20.076308    20.076308 -2.4140242e-09 
  605100 1.7838053e-16            0    20.076308    20.076308 2.2687243e-09 
  605200 1.6159389e-16            0    20.076308    20.076308 -4.2246205e-09 
  605300 1.4640494e-16            0    20.076308    20.076308 9.3723439e-10 
  605400 1.3168575e-16            0    20.076308    20.076308 1.698906e-09 
  605500 1.1815232e-16            0    20.076308    20.076308 2.5175044e-09 
  605600 1.0558166e-16            0    20.076308    20.076308 -3.1548884e-11 
  605700 9.9547266e-17            0    20.076308    20.076308 2.1966911e-09 
  605800 8.9883773e-17            0    20.076308    20.076308 -2.2553536e-09 
  605900 8.1512908e-17            0    20.076308    20.076308 2.6398567e-11 
  606000 7.1189389e-17            0    20.076308    20.076308 -7.2928258e-12 
Loop time of 0.426874 on 4 procs (4 MPI x 1 OpenMP) for 2000 steps with 4000 atoms

Pair  time (%) = 0.0449035 (10.5191)
Bond  time (%) = 0.0620708 (14.5408)
Neigh time (%) = 0 (0)
Comm  time (%) = 0.111942 (26.2238)
Outpt time (%) = 0.00114816 (0.268971)
Other time (%) = 0.206809 (48.4473)

Nlocal:    1000 ave 1033 max 983 min
Histogram: 2 0 0 1 0 0 0 0 0 1
Nghost:    1052 ave 1070 max 1021 min
Histogram: 1 0 0 0 0 0 1 0 1 1
Neighs:    2671 ave 2909 max 2525 min
Histogram: 2 0 0 0 1 0 0 0 0 1

Total # of neighbors = 10684
Ave neighs/atom = 2.671
Ave special neighs/atom = 5.925
Neighbor list builds = 0
Dangerous builds = 0
shell          head -n 2 Temp.txt | tail -n 1 >> Tempfile.txt
shell          head -n 2 Bond.txt | tail -n 1 >> Bondfile.txt
next           myTempStr
next           myBondStr
if "${myBond} <= 0" then "jump imdinput.txt nobonds"
jump           imdinput.txt loop2here

# specifies the run length in timesteps
run            2000
WARNING: Use special bonds = 0,1,1 with bond style fene (../bond_fene.cpp:188)
Memory usage per processor = 5.58517 Mbytes
Step Temp E_pair E_mol TotEng Press 
  606000 7.1189389e-17            0    20.076308    20.076308 -7.2928258e-12 
  606100 6.5226962e-17            0    20.076308    20.076308 -3.2539655e-09 
  606200 6.0040503e-17            0    20.076308    20.076308 2.045601e-09 
  606300 5.3031844e-17            0    20.076308    20.076308 1.8428023e-09 
  606400 4.8002627e-17            0    20.076308    20.076308 -1.0515924e-09 
  606500 4.320015e-17            0    20.076308    20.076308 8.4096634e-10 
  606600 3.9704132e-17            0    20.076308    20.076308 -2.098792e-11 
  606700 3.6302468e-17            0    20.076308    20.076308 -5.371689e-10 
  606800 3.1802149e-17            0    20.076308    20.076308 -2.0355623e-10 
  606900 2.9430841e-17            0    20.076308    20.076308 -2.5970542e-09 
  607000 2.5909547e-17            0    20.076308    20.076308 -2.2370447e-10 
  607100 2.4764592e-17            0    20.076308    20.076308 -2.0885847e-09 
  607200 2.1613972e-17            0    20.076308    20.076308 2.6323024e-09 
  607300 1.9456045e-17            0    20.076308    20.076308 1.5663356e-09 
  607400 1.8017313e-17            0    20.076308    20.076308 1.1866672e-09 
  607500 1.5950084e-17            0    20.076308    20.076308 4.6326156e-10 
  607600 1.4781923e-17            0    20.076308    20.076308 1.5111266e-09 
  607700 1.3740351e-17            0    20.076308    20.076308 -4.7225278e-10 
  607800 1.2004876e-17            0    20.076308    20.076308 -1.2933199e-09 
  607900 1.084001e-17            0    20.076308    20.076308 -2.0465005e-09 
  608000 9.8329732e-18            0    20.076308    20.076308 -4.5607672e-10 
Loop time of 0.426467 on 4 procs (4 MPI x 1 OpenMP) for 2000 steps with 4000 atoms

Pair  time (%) = 0.0448613 (10.5193)
Bond  time (%) = 0.0619802 (14.5334)
Neigh time (%) = 0 (0)
Comm  time (%) = 0.111969 (26.255)
Outpt time (%) = 0.00124937 (0.292959)
Other time (%) = 0.206408 (48.3994)

Nlocal:    1000 ave 1033 max 983 min
Histogram: 2 0 0 1 0 0 0 0 0 1
Nghost:    1052 ave 1070 max 1021 min
Histogram: 1 0 0 0 0 0 1 0 1 1
Neighs:    2671 ave 2909 max 2525 min
Histogram: 2 0 0 0 1 0 0 0 0 1

Total # of neighbors = 10684
Ave neighs/atom = 2.671
Ave special neighs/atom = 5.925
Neighbor list builds = 0
Dangerous builds = 0
shell          head -n 2 Temp.txt | tail -n 1 >> Tempfile.txt
shell          head -n 2 Bond.txt | tail -n 1 >> Bondfile.txt
next           myTempStr
next           myBondStr
if "${myBond} <= 0" then "jump imdinput.txt nobonds"
jump           imdinput.txt loop2here

# specifies the run length in timesteps
run            2000
WARNING: Use special bonds = 0,1,1 with bond style fene (../bond_fene.cpp:188)
Memory usage per processor = 5.58517 Mbytes
Step Temp E_pair E_mol TotEng Press 
  608000 9.8329732e-18            0    20.076308    20.076308 -4.5607672e-10 
  608100 8.961897e-18            0    20.076308    20.076308 8.5515485e-10 
  608200 8.089596e-18            0    20.076308    20.076308 6.8306939e-11 
  608300 7.4557702e-18            0    20.076308    20.076308 3.0725756e-10 
  608400 6.6670751e-18            0    20.076308    20.076308 4.3606975e-10 
  608500 5.8525907e-18            0    20.076308    20.076308 1.1549207e-10 
  608600 5.233733e-18            0    20.076308    20.076308 -1.0041088e-09 
  608700 4.896108e-18            0    20.076308    20.076308 4.7344619e-10 
  608800 4.5191184e-18            0    20.076308    20.076308 -3.8546039e-10 
  608900 4.0559695e-18            0    20.076308    20.076308 8.1619594e-11 
  609000 3.5284169e-18            0    20.076308    20.076308 -4.7081595e-10 
  609100 3.2029686e-18            0    20.076308    20.076308 3.3430712e-10 
  609200 2.9231709e-18            0    20.076308    20.076308 3.0847251e-10 
  609300 2.7368924e-18            0    20.076308    20.076308 2.5736164e-10 
  609400 2.4409278e-18            0    20.076308    20.076308 1.1316922e-11 
  609500 2.1919487e-18            0    20.076308    20.076308 6.3996351e-10 
  609600 1.964208e-18            0    20.076308    20.076308 -2.2556302e-10 
  609700 1.7987834e-18            0    20.076308    20.076308 -2.3781376e-10 
  609800 1.643029e-18            0    20.076308    20.076308 -2.3971128e-10 
  609900 1.4882073e-18            0    20.076308    20.076308 -1.6029982e-10 
  610000 1.3185675e-18            0    20.076308    20.076308 4.2415149e-10 
Loop time of 0.423846 on 4 procs (4 MPI x 1 OpenMP) for 2000 steps with 4000 atoms

Pair  time (%) = 0.0443457 (10.4627)
Bond  time (%) = 0.0615456 (14.5208)
Neigh time (%) = 0 (0)
Comm  time (%) = 0.112186 (26.4685)
Outpt time (%) = 0.00120169 (0.28352)
Other time (%) = 0.204567 (48.2645)

Nlocal:    1000 ave 1033 max 983 min
Histogram: 2 0 0 1 0 0 0 0 0 1
Nghost:    1052 ave 1070 max 1021 min
Histogram: 1 0 0 0 0 0 1 0 1 1
Neighs:    2671 ave 2909 max 2525 min
Histogram: 2 0 0 0 1 0 0 0 0 1

Total # of neighbors = 10684
Ave neighs/atom = 2.671
Ave special neighs/atom = 5.925
Neighbor list builds = 0
Dangerous builds = 0
shell          head -n 2 Temp.txt | tail -n 1 >> Tempfile.txt
shell          head -n 2 Bond.txt | tail -n 1 >> Bondfile.txt
next           myTempStr
next           myBondStr
if "${myBond} <= 0" then "jump imdinput.txt nobonds"
jump           imdinput.txt loop2here

# specifies the run length in timesteps
run            2000
WARNING: Use special bonds = 0,1,1 with bond style fene (../bond_fene.cpp:188)
Memory usage per processor = 5.58517 Mbytes
Step Temp E_pair E_mol TotEng Press 
  610000 1.3185675e-18            0    20.076308    20.076308 4.2415149e-10 
  610100 1.1840142e-18            0    20.076308    20.076308 -1.0090694e-12 
  610200 1.0776617e-18            0    20.076308    20.076308 -1.8546797e-10 
  610300 9.8967101e-19            0    20.076308    20.076308 -1.2497297e-10 
  610400 9.2675938e-19            0    20.076308    20.076308 4.022934e-12 
  610500 8.0141891e-19            0    20.076308    20.076308 -3.6017094e-10 
  610600 7.1720779e-19            0    20.076308    20.076308 1.6510023e-10 
  610700 6.6796474e-19            0    20.076308    20.076308 -2.418308e-10 
  610800 5.9528307e-19            0    20.076308    20.076308 1.8671962e-10 
  610900 5.419242e-19            0    20.076308    20.076308 1.3753049e-10 
  611000 4.8053331e-19            0    20.076308    20.076308 2.1468737e-10 
  611100 4.4627382e-19            0    20.076308    20.076308 -7.2211375e-11 
  611200 3.9820818e-19            0    20.076308    20.076308 1.8402205e-10 
  611300 3.6737854e-19            0    20.076308    20.076308 -2.9311161e-10 
  611400 3.3078508e-19            0    20.076308    20.076308 1.0058492e-10 
  611500 2.855447e-19            0    20.076308    20.076308 8.1707132e-11 
  611600 2.6657383e-19            0    20.076308    20.076308 4.4498905e-11 
  611700 2.4154981e-19            0    20.076308    20.076308 2.4202051e-12 
  611800 2.2526019e-19            0    20.076308    20.076308 -2.1260694e-10 
  611900 1.973337e-19            0    20.076308    20.076308 7.3528443e-11 
  612000 1.7854961e-19            0    20.076308    20.076308 5.1719872e-11 
Loop time of 0.423889 on 4 procs (4 MPI x 1 OpenMP) for 2000 steps with 4000 atoms

Pair  time (%) = 0.0446163 (10.5255)
Bond  time (%) = 0.061613 (14.5352)
Neigh time (%) = 0 (0)
Comm  time (%) = 0.112079 (26.4405)
Outpt time (%) = 0.00114751 (0.270709)
Other time (%) = 0.204434 (48.2281)

Nlocal:    1000 ave 1033 max 983 min
Histogram: 2 0 0 1 0 0 0 0 0 1
Nghost:    1052 ave 1070 max 1021 min
Histogram: 1 0 0 0 0 0 1 0 1 1
Neighs:    2671 ave 2909 max 2525 min
Histogram: 2 0 0 0 1 0 0 0 0 1

Total # of neighbors = 10684
Ave neighs/atom = 2.671
Ave special neighs/atom = 5.925
Neighbor list builds = 0
Dangerous builds = 0
shell          head -n 2 Temp.txt | tail -n 1 >> Tempfile.txt
shell          head -n 2 Bond.txt | tail -n 1 >> Bondfile.txt
next           myTempStr
next           myBondStr
if "${myBond} <= 0" then "jump imdinput.txt nobonds"
jump           imdinput.txt loop2here

# specifies the run length in timesteps
run            2000
WARNING: Use special bonds = 0,1,1 with bond style fene (../bond_fene.cpp:188)
Memory usage per processor = 5.58517 Mbytes
Step Temp E_pair E_mol TotEng Press 
  612000 1.7854961e-19            0    20.076308    20.076308 5.1719872e-11 
  612100 1.6657026e-19            0    20.076308    20.076308 4.4786029e-11 
  612200 1.4586047e-19            0    20.076308    20.076308 -1.0478112e-10 
  612300 1.333393e-19            0    20.076308    20.076308 3.4212988e-11 
  612400 1.2246185e-19            0    20.076308    20.076308 -1.2835037e-10 
  612500 1.0588065e-19            0    20.076308    20.076308 -5.4407546e-11 
  612600 9.8901418e-20            0    20.076308    20.076308 3.5706639e-11 
  612700 9.0281964e-20            0    20.076308    20.076308 1.0497069e-10 
  612800 7.9562668e-20            0    20.076308    20.076308 7.5917307e-11 
  612900 7.1932154e-20            0    20.076308    20.076308 1.664885e-11 
  613000 6.5190503e-20            0    20.076308    20.076308 3.286972e-11 
  613100 6.0617399e-20            0    20.076308    20.076308 -1.040518e-10 
  613200 5.4193254e-20            0    20.076308    20.076308 -6.8951891e-11 
  613300 4.9485567e-20            0    20.076308    20.076308 -1.8453299e-11 
  613400 4.4213559e-20            0    20.076308    20.076308 3.8435671e-13 
  613500 4.1692537e-20            0    20.076308    20.076308 3.6478113e-11 
  613600 3.690059e-20            0    20.076308    20.076308 4.0937151e-11 
  613700 3.2599822e-20            0    20.076308    20.076308 -1.3024994e-11 
  613800 2.9542605e-20            0    20.076308    20.076308 3.7379123e-11 
  613900 2.6900115e-20            0    20.076308    20.076308 4.0368067e-12 
  614000   2.5209e-20            0    20.076308    20.076308 -6.9340282e-14 
Loop time of 0.424423 on 4 procs (4 MPI x 1 OpenMP) for 2000 steps with 4000 atoms

Pair  time (%) = 0.0446079 (10.5102)
Bond  time (%) = 0.061614 (14.5171)
Neigh time (%) = 0 (0)
Comm  time (%) = 0.112186 (26.4326)
Outpt time (%) = 0.00115168 (0.271352)
Other time (%) = 0.204864 (48.2687)

Nlocal:    1000 ave 1033 max 983 min
Histogram: 2 0 0 1 0 0 0 0 0 1
Nghost:    1052 ave 1070 max 1021 min
Histogram: 1 0 0 0 0 0 1 0 1 1
Neighs:    2671 ave 2909 max 2525 min
Histogram: 2 0 0 0 1 0 0 0 0 1

Total # of neighbors = 10684
Ave neighs/atom = 2.671
Ave special neighs/atom = 5.925
Neighbor list builds = 0
Dangerous builds = 0
shell          head -n 2 Temp.txt | tail -n 1 >> Tempfile.txt
shell          head -n 2 Bond.txt | tail -n 1 >> Bondfile.txt
next           myTempStr
next           myBondStr
if "${myBond} <= 0" then "jump imdinput.txt nobonds"
jump           imdinput.txt loop2here

# specifies the run length in timesteps
run            2000
WARNING: Use special bonds = 0,1,1 with bond style fene (../bond_fene.cpp:188)
Memory usage per processor = 5.58517 Mbytes
Step Temp E_pair E_mol TotEng Press 
  614000   2.5209e-20            0    20.076308    20.076308 -6.9340282e-14 
  614100 2.1668532e-20            0    20.076308    20.076308 -7.7834288e-12 
  614200 1.9735817e-20            0    20.076308    20.076308 3.5104124e-12 
  614300 1.7922266e-20            0    20.076308    20.076308 -5.2091755e-12 
  614400 1.6180763e-20            0    20.076308    20.076308 -1.1828596e-11 
  614500 1.4372508e-20            0    20.076308    20.076308 -1.2761781e-11 
  614600 1.3265231e-20            0    20.076308    20.076308 1.6126567e-11 
  614700 1.2336036e-20            0    20.076308    20.076308 -2.2417852e-11 
  614800 1.0785459e-20            0    20.076308    20.076308 1.9491306e-11 
  614900 9.8932496e-21            0    20.076308    20.076308 -3.60367e-11 
  615000 8.8954153e-21            0    20.076308    20.076308 3.5302915e-11 
  615100 8.1500093e-21            0    20.076308    20.076308 -2.5634458e-11 
  615200 7.3032537e-21            0    20.076308    20.076308 -4.5462095e-12 
  615300 6.5724969e-21            0    20.076308    20.076308 -2.2027723e-12 
  615400 5.962288e-21            0    20.076308    20.076308 2.3917294e-11 
  615500 5.2874859e-21            0    20.076308    20.076308 2.1116664e-12 
  615600 4.8621202e-21            0    20.076308    20.076308 1.6341554e-12 
  615700 4.5334138e-21            0    20.076308    20.076308 2.3286331e-11 
  615800 4.0347619e-21            0    20.076308    20.076308 -6.4461997e-12 
  615900 3.6621801e-21            0    20.076308    20.076308 -3.4318158e-11 
  616000 3.2299988e-21            0    20.076308    20.076308 1.6204057e-11 
Loop time of 0.42246 on 4 procs (4 MPI x 1 OpenMP) for 2000 steps with 4000 atoms

Pair  time (%) = 0.0442002 (10.4626)
Bond  time (%) = 0.061132 (14.4705)
Neigh time (%) = 0 (0)
Comm  time (%) = 0.112908 (26.7263)
Outpt time (%) = 0.00111759 (0.264543)
Other time (%) = 0.203102 (48.0761)

Nlocal:    1000 ave 1033 max 983 min
Histogram: 2 0 0 1 0 0 0 0 0 1
Nghost:    1052 ave 1070 max 1021 min
Histogram: 1 0 0 0 0 0 1 0 1 1
Neighs:    2671 ave 2909 max 2525 min
Histogram: 2 0 0 0 1 0 0 0 0 1

Total # of neighbors = 10684
Ave neighs/atom = 2.671
Ave special neighs/atom = 5.925
Neighbor list builds = 0
Dangerous builds = 0
shell          head -n 2 Temp.txt | tail -n 1 >> Tempfile.txt
shell          head -n 2 Bond.txt | tail -n 1 >> Bondfile.txt
next           myTempStr
next           myBondStr
if "${myBond} <= 0" then "jump imdinput.txt nobonds"
jump           imdinput.txt loop2here

# specifies the run length in timesteps
run            2000
WARNING: Use special bonds = 0,1,1 with bond style fene (../bond_fene.cpp:188)
Memory usage per processor = 5.58517 Mbytes
Step Temp E_pair E_mol TotEng Press 
  616000 3.2299988e-21            0    20.076308    20.076308 1.6204057e-11 
  616100 2.9356418e-21            0    20.076308    20.076308 -2.0596841e-11 
  616200 2.689357e-21            0    20.076308    20.076308  1.34521e-12 
  616300 2.4665324e-21            0    20.076308    20.076308 3.166096e-12 
  616400 2.1744283e-21            0    20.076308    20.076308 1.7660479e-11 
  616500 2.0376328e-21            0    20.076308    20.076308 8.5210249e-12 
  616600 1.8273213e-21            0    20.076308    20.076308 -5.8074102e-12 
  616700 1.5885247e-21            0    20.076308    20.076308 1.3985432e-11 
  616800 1.4860081e-21            0    20.076308    20.076308 4.9823479e-13 
  616900 1.3408996e-21            0    20.076308    20.076308 -7.5333011e-12 
  617000 1.2070816e-21            0    20.076308    20.076308 -2.0822169e-11 
  617100 1.0933549e-21            0    20.076308    20.076308 -7.2793108e-12 
  617200 9.9532627e-22            0    20.076308    20.076308 7.9426834e-12 
  617300 9.0344844e-22            0    20.076308    20.076308 -4.0982214e-12 
  617400 8.1910313e-22            0    20.076308    20.076308 6.0237414e-12 
  617500 7.3780079e-22            0    20.076308    20.076308 5.7891229e-12 
  617600 6.6841354e-22            0    20.076308    20.076308 -2.304251e-12 
  617700 6.0269693e-22            0    20.076308    20.076308 8.6397619e-13 
  617800 5.3994533e-22            0    20.076308    20.076308 4.4023497e-12 
  617900 4.8884631e-22            0    20.076308    20.076308 -8.4903856e-12 
  618000 4.3122387e-22            0    20.076308    20.076308 8.5230714e-12 
Loop time of 0.4259 on 4 procs (4 MPI x 1 OpenMP) for 2000 steps with 4000 atoms

Pair  time (%) = 0.0447272 (10.5018)
Bond  time (%) = 0.0618485 (14.5218)
Neigh time (%) = 0 (0)
Comm  time (%) = 0.112412 (26.394)
Outpt time (%) = 0.00115728 (0.271726)
Other time (%) = 0.205755 (48.3107)

Nlocal:    1000 ave 1033 max 983 min
Histogram: 2 0 0 1 0 0 0 0 0 1
Nghost:    1052 ave 1070 max 1021 min
Histogram: 1 0 0 0 0 0 1 0 1 1
Neighs:    2671 ave 2909 max 2525 min
Histogram: 2 0 0 0 1 0 0 0 0 1

Total # of neighbors = 10684
Ave neighs/atom = 2.671
Ave special neighs/atom = 5.925
Neighbor list builds = 0
Dangerous builds = 0
shell          head -n 2 Temp.txt | tail -n 1 >> Tempfile.txt
shell          head -n 2 Bond.txt | tail -n 1 >> Bondfile.txt
next           myTempStr
next           myBondStr
if "${myBond} <= 0" then "jump imdinput.txt nobonds"
jump           imdinput.txt loop2here

# specifies the run length in timesteps
run            2000
WARNING: Use special bonds = 0,1,1 with bond style fene (../bond_fene.cpp:188)
Memory usage per processor = 5.58517 Mbytes
Step Temp E_pair E_mol TotEng Press 
  618000 4.3122387e-22            0    20.076308    20.076308 8.5230714e-12 
  618100 4.0242863e-22            0    20.076308    20.076308 -1.8211704e-12 
  618200 3.5847867e-22            0    20.076308    20.076308 -3.8982141e-12 
  618300 3.2635608e-22            0    20.076308    20.076308 -4.8706475e-12 
  618400 2.9304348e-22            0    20.076308    20.076308 6.1037607e-12 
  618500 2.6571357e-22            0    20.076308    20.076308 1.6992617e-12 
  618600 2.4509283e-22            0    20.076308    20.076308 -5.2216548e-13 
  618700 2.227628e-22            0    20.076308    20.076308 -2.7808805e-12 
  618800 1.9885148e-22            0    20.076308    20.076308 6.0375052e-12 
  618900 1.7679169e-22            0    20.076308    20.076308 -5.1051985e-13 
  619000 1.6412505e-22            0    20.076308    20.076308 -5.2166117e-12 
  619100 1.4684576e-22            0    20.076308    20.076308 5.237105e-12 
  619200 1.3906446e-22            0    20.076308    20.076308 -1.5776629e-12 
  619300 1.2225653e-22            0    20.076308    20.076308 6.8486638e-13 
  619400 1.0852425e-22            0    20.076308    20.076308 -2.9491732e-12 
  619500  1.00839e-22            0    20.076308    20.076308 -1.5798894e-12 
  619600 8.9605188e-23            0    20.076308    20.076308 -1.3467194e-12 
  619700 8.0559103e-23            0    20.076308    20.076308 -7.1448745e-13 
  619800 7.4010238e-23            0    20.076308    20.076308 2.4056864e-12 
  619900 6.5091785e-23            0    20.076308    20.076308 3.4492864e-12 
  620000 5.9249047e-23            0    20.076308    20.076308 -2.44833e-12 
Loop time of 0.423176 on 4 procs (4 MPI x 1 OpenMP) for 2000 steps with 4000 atoms

Pair  time (%) = 0.0443637 (10.4835)
Bond  time (%) = 0.0613523 (14.498)
Neigh time (%) = 0 (0)
Comm  time (%) = 0.112698 (26.6314)
Outpt time (%) = 0.00113004 (0.267039)
Other time (%) = 0.203633 (48.1201)

Nlocal:    1000 ave 1033 max 983 min
Histogram: 2 0 0 1 0 0 0 0 0 1
Nghost:    1052 ave 1070 max 1021 min
Histogram: 1 0 0 0 0 0 1 0 1 1
Neighs:    2671 ave 2909 max 2525 min
Histogram: 2 0 0 0 1 0 0 0 0 1

Total # of neighbors = 10684
Ave neighs/atom = 2.671
Ave special neighs/atom = 5.925
Neighbor list builds = 0
Dangerous builds = 0
shell          head -n 2 Temp.txt | tail -n 1 >> Tempfile.txt
shell          head -n 2 Bond.txt | tail -n 1 >> Bondfile.txt
next           myTempStr
next           myBondStr
if "${myBond} <= 0" then "jump imdinput.txt nobonds"
jump           imdinput.txt loop2here

# specifies the run length in timesteps
run            2000
WARNING: Use special bonds = 0,1,1 with bond style fene (../bond_fene.cpp:188)
Memory usage per processor = 5.58517 Mbytes
Step Temp E_pair E_mol TotEng Press 
  620000 5.9249047e-23            0    20.076308    20.076308 -2.44833e-12 
  620100 5.4232773e-23            0    20.076308    20.076308 -4.0592532e-13 
  620200 4.8546649e-23            0    20.076308    20.076308 2.5268822e-13 
  620300 4.5382354e-23            0    20.076308    20.076308 1.4626203e-12 
  620400 3.9631371e-23            0    20.076308    20.076308 -1.3559081e-12 
  620500 3.7037033e-23            0    20.076308    20.076308 1.4917739e-13 
  620600 3.2928429e-23            0    20.076308    20.076308 1.2549174e-12 
  620700 2.9493507e-23            0    20.076308    20.076308 -1.010633e-12 
  620800 2.7188623e-23            0    20.076308    20.076308 1.0522924e-12 
  620900 2.4840738e-23            0    20.076308    20.076308 8.6022273e-13 
  621000 2.1493899e-23            0    20.076308    20.076308 -1.4027341e-12 
  621100 1.9611803e-23            0    20.076308    20.076308 -1.1311555e-12 
  621200 1.8584037e-23            0    20.076308    20.076308 8.5785504e-13 
  621300 1.6219513e-23            0    20.076308    20.076308 -1.2400249e-12 
  621400 1.4712502e-23            0    20.076308    20.076308 3.8959635e-13 
  621500 1.3296772e-23            0    20.076308    20.076308 -4.0230383e-14 
  621600 1.2136483e-23            0    20.076308    20.076308 1.259104e-12 
  621700 1.0888152e-23            0    20.076308    20.076308 -3.0242424e-13 
  621800 1.0099933e-23            0    20.076308    20.076308 3.169506e-14 
  621900 9.0392369e-24            0    20.076308    20.076308 5.1784042e-13 
  622000 7.9988047e-24            0    20.076308    20.076308 -5.6236333e-13 
Loop time of 0.424992 on 4 procs (4 MPI x 1 OpenMP) for 2000 steps with 4000 atoms

Pair  time (%) = 0.0437465 (10.2935)
Bond  time (%) = 0.0606148 (14.2626)
Neigh time (%) = 0 (0)
Comm  time (%) = 0.114378 (26.913)
Outpt time (%) = 0.00109595 (0.257876)
Other time (%) = 0.205156 (48.273)

Nlocal:    1000 ave 1033 max 983 min
Histogram: 2 0 0 1 0 0 0 0 0 1
Nghost:    1052 ave 1070 max 1021 min
Histogram: 1 0 0 0 0 0 1 0 1 1
Neighs:    2671 ave 2909 max 2525 min
Histogram: 2 0 0 0 1 0 0 0 0 1

Total # of neighbors = 10684
Ave neighs/atom = 2.671
Ave special neighs/atom = 5.925
Neighbor list builds = 0
Dangerous builds = 0
shell          head -n 2 Temp.txt | tail -n 1 >> Tempfile.txt
shell          head -n 2 Bond.txt | tail -n 1 >> Bondfile.txt
next           myTempStr
next           myBondStr
if "${myBond} <= 0" then "jump imdinput.txt nobonds"
jump           imdinput.txt loop2here

# specifies the run length in timesteps
run            2000
WARNING: Use special bonds = 0,1,1 with bond style fene (../bond_fene.cpp:188)
Memory usage per processor = 5.58517 Mbytes
Step Temp E_pair E_mol TotEng Press 
  622000 7.9988047e-24            0    20.076308    20.076308 -5.6236333e-13 
  622100 7.2562448e-24            0    20.076308    20.076308 -3.8028078e-13 
  622200 6.8562256e-24            0    20.076308    20.076308 7.530946e-14 
  622300 6.0110981e-24            0    20.076308    20.076308 -2.2410439e-13 
  622400 5.509004e-24            0    20.076308    20.076308 1.1548715e-12 
  622500 4.8388674e-24            0    20.076308    20.076308 -9.1540608e-13 
  622600 4.3425489e-24            0    20.076308    20.076308 5.0321508e-13 
  622700 4.0980004e-24            0    20.076308    20.076308 -5.9783462e-13 
  622800 3.6263436e-24            0    20.076308    20.076308 -8.204775e-14 
  622900 3.3018321e-24            0    20.076308    20.076308 -1.3836964e-13 
  623000 2.9738702e-24            0    20.076308    20.076308 5.9273258e-14 
  623100 2.6945859e-24            0    20.076308    20.076308 1.0257258e-13 
  623200 2.5626594e-24            0    20.076308    20.076308 4.8719328e-13 
  623300 2.1783108e-24            0    20.076308    20.076308 1.4263381e-13 
  623400 2.0156821e-24            0    20.076308    20.076308 -2.7244303e-13 
  623500 1.7776618e-24            0    20.076308    20.076308 1.5844138e-13 
  623600 1.637116e-24            0    20.076308    20.076308 -1.4354279e-13 
  623700 1.5073481e-24            0    20.076308    20.076308 3.1377571e-13 
  623800 1.3197337e-24            0    20.076308    20.076308 -1.8414633e-13 
  623900 1.2230043e-24            0    20.076308    20.076308 -2.7704598e-14 
  624000 1.1087347e-24            0    20.076308    20.076308 -6.8961479e-13 
Loop time of 0.425712 on 4 procs (4 MPI x 1 OpenMP) for 2000 steps with 4000 atoms

Pair  time (%) = 0.0439572 (10.3256)
Bond  time (%) = 0.0616819 (14.4891)
Neigh time (%) = 0 (0)
Comm  time (%) = 0.113686 (26.7049)
Outpt time (%) = 0.00110483 (0.259526)
Other time (%) = 0.205282 (48.2209)

Nlocal:    1000 ave 1033 max 983 min
Histogram: 2 0 0 1 0 0 0 0 0 1
Nghost:    1052 ave 1070 max 1021 min
Histogram: 1 0 0 0 0 0 1 0 1 1
Neighs:    2671 ave 2909 max 2525 min
Histogram: 2 0 0 0 1 0 0 0 0 1

Total # of neighbors = 10684
Ave neighs/atom = 2.671
Ave special neighs/atom = 5.925
Neighbor list builds = 0
Dangerous builds = 0
shell          head -n 2 Temp.txt | tail -n 1 >> Tempfile.txt
shell          head -n 2 Bond.txt | tail -n 1 >> Bondfile.txt
next           myTempStr
next           myBondStr
if "${myBond} <= 0" then "jump imdinput.txt nobonds"
jump           imdinput.txt loop2here

# specifies the run length in timesteps
run            2000
WARNING: Use special bonds = 0,1,1 with bond style fene (../bond_fene.cpp:188)
Memory usage per processor = 5.58517 Mbytes
Step Temp E_pair E_mol TotEng Press 
  624000 1.1087347e-24            0    20.076308    20.076308 -6.8961479e-13 
  624100 9.8127257e-25            0    20.076308    20.076308 -3.5540533e-14 
  624200 9.3319369e-25            0    20.076308    20.076308 1.9929912e-13 
  624300 8.1313444e-25            0    20.076308    20.076308 2.8782678e-13 
  624400 7.5850607e-25            0    20.076308    20.076308 2.4704293e-13 
  624500 6.6571056e-25            0    20.076308    20.076308 -8.6082825e-15 
  624600 6.0459068e-25            0    20.076308    20.076308 -2.8825478e-14 
  624700 5.5916748e-25            0    20.076308    20.076308 3.1806126e-14 
  624800 4.9851783e-25            0    20.076308    20.076308 -2.4829486e-13 
  624900 4.4836208e-25            0    20.076308    20.076308 -8.5705945e-14 
  625000 4.0506062e-25            0    20.076308    20.076308 -2.1048886e-13 
  625100 3.6170377e-25            0    20.076308    20.076308 1.5615594e-13 
  625200 3.4201662e-25            0    20.076308    20.076308 1.1021845e-13 
  625300 3.0027954e-25            0    20.076308    20.076308 -2.7376048e-14 
  625400 2.7222803e-25            0    20.076308    20.076308 7.0203694e-15 
  625500 2.5079281e-25            0    20.076308    20.076308 1.4250462e-13 
  625600 2.2689501e-25            0    20.076308    20.076308 -1.6289004e-14 
  625700  2.07986e-25            0    20.076308    20.076308 1.6354528e-14 
  625800 1.8684575e-25            0    20.076308    20.076308 -6.9455512e-15 
  625900 1.7436003e-25            0    20.076308    20.076308 -7.5389855e-15 
  626000 1.5610933e-25            0    20.076308    20.076308 1.258392e-13 
Loop time of 0.424426 on 4 procs (4 MPI x 1 OpenMP) for 2000 steps with 4000 atoms

Pair  time (%) = 0.0440564 (10.3802)
Bond  time (%) = 0.0616411 (14.5234)
Neigh time (%) = 0 (0)
Comm  time (%) = 0.113441 (26.7282)
Outpt time (%) = 0.00114334 (0.269384)
Other time (%) = 0.204144 (48.0988)

Nlocal:    1000 ave 1033 max 983 min
Histogram: 2 0 0 1 0 0 0 0 0 1
Nghost:    1052 ave 1070 max 1021 min
Histogram: 1 0 0 0 0 0 1 0 1 1
Neighs:    2671 ave 2909 max 2525 min
Histogram: 2 0 0 0 1 0 0 0 0 1

Total # of neighbors = 10684
Ave neighs/atom = 2.671
Ave special neighs/atom = 5.925
Neighbor list builds = 0
Dangerous builds = 0
shell          head -n 2 Temp.txt | tail -n 1 >> Tempfile.txt
shell          head -n 2 Bond.txt | tail -n 1 >> Bondfile.txt
next           myTempStr
next           myBondStr
if "${myBond} <= 0" then "jump imdinput.txt nobonds"
jump           imdinput.txt loop2here

# specifies the run length in timesteps
run            2000
WARNING: Use special bonds = 0,1,1 with bond style fene (../bond_fene.cpp:188)
Memory usage per processor = 5.58517 Mbytes
Step Temp E_pair E_mol TotEng Press 
  626000 1.5610933e-25            0    20.076308    20.076308 1.258392e-13 
  626100 1.3922376e-25            0    20.076308    20.076308 4.0208077e-14 
  626200 1.3132106e-25            0    20.076308    20.076308 -3.6279886e-15 
  626300 1.1866694e-25            0    20.076308    20.076308 -4.9366576e-14 
  626400 1.0938696e-25            0    20.076308    20.076308 4.4490377e-14 
  626500 9.7657343e-26            0    20.076308    20.076308 -5.1809555e-14 
  626600 8.7551129e-26            0    20.076308    20.076308 -3.8399427e-14 
  626700 8.4304989e-26            0    20.076308    20.076308 -1.121298e-14 
  626800 7.6766007e-26            0    20.076308    20.076308 2.6916451e-14 
  626900 7.1103565e-26            0    20.076308    20.076308 5.5497956e-14 
  627000 6.4598764e-26            0    20.076308    20.076308 -2.0552716e-14 
  627100 6.0784545e-26            0    20.076308    20.076308 -1.3074607e-14 
  627200 5.5612279e-26            0    20.076308    20.076308 6.325489e-14 
  627300 5.1842545e-26            0    20.076308    20.076308 -7.4162092e-14 
  627400 4.8515698e-26            0    20.076308    20.076308 7.7902075e-14 
  627500 4.706208e-26            0    20.076308    20.076308 -4.813556e-14 
  627600 4.2539181e-26            0    20.076308    20.076308 3.1748967e-15 
  627700 3.9664547e-26            0    20.076308    20.076308 7.4005484e-14 
  627800 3.7042907e-26            0    20.076308    20.076308 -2.5414044e-14 
  627900 3.6392431e-26            0    20.076308    20.076308 -2.7362107e-15 
  628000 3.4688226e-26            0    20.076308    20.076308 2.5461444e-15 
Loop time of 0.426632 on 4 procs (4 MPI x 1 OpenMP) for 2000 steps with 4000 atoms

Pair  time (%) = 0.0445837 (10.4501)
Bond  time (%) = 0.0610952 (14.3203)
Neigh time (%) = 0 (0)
Comm  time (%) = 0.112223 (26.3044)
Outpt time (%) = 0.00109559 (0.2568)
Other time (%) = 0.207635 (48.6684)

Nlocal:    1000 ave 1033 max 983 min
Histogram: 2 0 0 1 0 0 0 0 0 1
Nghost:    1052 ave 1070 max 1021 min
Histogram: 1 0 0 0 0 0 1 0 1 1
Neighs:    2671 ave 2909 max 2525 min
Histogram: 2 0 0 0 1 0 0 0 0 1

Total # of neighbors = 10684
Ave neighs/atom = 2.671
Ave special neighs/atom = 5.925
Neighbor list builds = 0
Dangerous builds = 0
shell          head -n 2 Temp.txt | tail -n 1 >> Tempfile.txt
shell          head -n 2 Bond.txt | tail -n 1 >> Bondfile.txt
next           myTempStr
next           myBondStr
if "${myBond} <= 0" then "jump imdinput.txt nobonds"
jump           imdinput.txt loop2here

# specifies the run length in timesteps
run            2000
WARNING: Use special bonds = 0,1,1 with bond style fene (../bond_fene.cpp:188)
Memory usage per processor = 5.58517 Mbytes
Step Temp E_pair E_mol TotEng Press 
  628000 3.4688226e-26            0    20.076308    20.076308 2.5461444e-15 
  628100 3.2032487e-26            0    20.076308    20.076308 -1.3880414e-14 
  628200 3.0823236e-26            0    20.076308    20.076308 4.8514763e-14 
  628300 2.9207434e-26            0    20.076308    20.076308 2.3626771e-14 
  628400 2.8733681e-26            0    20.076308    20.076308 9.916905e-15 
  628500 2.6639225e-26            0    20.076308    20.076308 -1.0436915e-14 
  628600 2.5594739e-26            0    20.076308    20.076308 -2.0901713e-14 
  628700 2.4555251e-26            0    20.076308    20.076308 9.5497843e-15 
  628800 2.5028138e-26            0    20.076308    20.076308 1.5693247e-15 
  628900 2.3447372e-26            0    20.076308    20.076308 -2.3281027e-14 
  629000 2.3055004e-26            0    20.076308    20.076308 4.8696929e-15 
  629100 2.1874546e-26            0    20.076308    20.076308 7.0724169e-15 
  629200 2.1523723e-26            0    20.076308    20.076308 1.8288186e-14 
  629300 2.1138142e-26            0    20.076308    20.076308 -5.8293185e-15 
  629400 2.0555218e-26            0    20.076308    20.076308 -1.1666072e-14 
  629500 2.0568647e-26            0    20.076308    20.076308 -9.9726702e-15 
  629600 2.0297546e-26            0    20.076308    20.076308 9.2937293e-15 
  629700 1.9653568e-26            0    20.076308    20.076308 1.4814945e-14 
  629800 1.934825e-26            0    20.076308    20.076308 1.3037895e-14 
  629900 1.9278263e-26            0    20.076308    20.076308 8.5413643e-15 
  630000 1.8671366e-26            0    20.076308    20.076308 -2.7854699e-15 
Loop time of 0.427818 on 4 procs (4 MPI x 1 OpenMP) for 2000 steps with 4000 atoms

Pair  time (%) = 0.0446765 (10.4429)
Bond  time (%) = 0.0613129 (14.3315)
Neigh time (%) = 0 (0)
Comm  time (%) = 0.112041 (26.1891)
Outpt time (%) = 0.00108618 (0.253888)
Other time (%) = 0.208701 (48.7826)

Nlocal:    1000 ave 1033 max 983 min
Histogram: 2 0 0 1 0 0 0 0 0 1
Nghost:    1052 ave 1070 max 1021 min
Histogram: 1 0 0 0 0 0 1 0 1 1
Neighs:    2671 ave 2909 max 2525 min
Histogram: 2 0 0 0 1 0 0 0 0 1

Total # of neighbors = 10684
Ave neighs/atom = 2.671
Ave special neighs/atom = 5.925
Neighbor list builds = 0
Dangerous builds = 0
shell          head -n 2 Temp.txt | tail -n 1 >> Tempfile.txt
shell          head -n 2 Bond.txt | tail -n 1 >> Bondfile.txt
next           myTempStr
next           myBondStr
if "${myBond} <= 0" then "jump imdinput.txt nobonds"
jump           imdinput.txt loop2here

# specifies the run length in timesteps
run            2000
WARNING: Use special bonds = 0,1,1 with bond style fene (../bond_fene.cpp:188)
Memory usage per processor = 5.58517 Mbytes
Step Temp E_pair E_mol TotEng Press 
  630000 1.8671366e-26            0    20.076308    20.076308 -2.7854699e-15 
  630100 1.8445856e-26            0    20.076308    20.076308 -1.1996016e-14 
  630200 1.8377368e-26            0    20.076308    20.076308 -1.4129034e-14 
  630300 1.7892954e-26            0    20.076308    20.076308 1.0580046e-14 
  630400 1.7932151e-26            0    20.076308    20.076308 -9.9127226e-15 
  630500 1.7982602e-26            0    20.076308    20.076308 7.3326544e-15 
  630600 1.7288498e-26            0    20.076308    20.076308 1.0034477e-14 
  630700 1.689123e-26            0    20.076308    20.076308 2.5875036e-15 
  630800 1.6752654e-26            0    20.076308    20.076308 -2.8523881e-15 
  630900 1.6879862e-26            0    20.076308    20.076308 -4.0183448e-15 
  631000 1.7145494e-26            0    20.076308    20.076308 -2.0433286e-15 
  631100 1.719516e-26            0    20.076308    20.076308 -5.9018132e-16 
  631200 1.7062803e-26            0    20.076308    20.076308 1.7663616e-15 
  631300 1.6577287e-26            0    20.076308    20.076308 -4.1210456e-15 
  631400 1.6189529e-26            0    20.076308    20.076308 -1.7598556e-15 
  631500 1.5954824e-26            0    20.076308    20.076308 -3.160026e-16 
  631600 1.5810217e-26            0    20.076308    20.076308 4.8696929e-15 
  631700 1.570707e-26            0    20.076308    20.076308 1.346264e-15 
  631800 1.5495833e-26            0    20.076308    20.076308 8.8806024e-16 
  631900 1.5350279e-26            0    20.076308    20.076308 1.4605826e-15 
  632000 1.535026e-26            0    20.076308    20.076308 3.8580199e-15 
Loop time of 0.429335 on 4 procs (4 MPI x 1 OpenMP) for 2000 steps with 4000 atoms

Pair  time (%) = 0.0447692 (10.4276)
Bond  time (%) = 0.0617583 (14.3847)
Neigh time (%) = 0 (0)
Comm  time (%) = 0.112109 (26.1123)
Outpt time (%) = 0.00114059 (0.265666)
Other time (%) = 0.209558 (48.8099)

Nlocal:    1000 ave 1033 max 983 min
Histogram: 2 0 0 1 0 0 0 0 0 1
Nghost:    1052 ave 1070 max 1021 min
Histogram: 1 0 0 0 0 0 1 0 1 1
Neighs:    2671 ave 2909 max 2525 min
Histogram: 2 0 0 0 1 0 0 0 0 1

Total # of neighbors = 10684
Ave neighs/atom = 2.671
Ave special neighs/atom = 5.925
Neighbor list builds = 0
Dangerous builds = 0
shell          head -n 2 Temp.txt | tail -n 1 >> Tempfile.txt
shell          head -n 2 Bond.txt | tail -n 1 >> Bondfile.txt
next           myTempStr
next           myBondStr
if "${myBond} <= 0" then "jump imdinput.txt nobonds"
jump           imdinput.txt loop2here

# specifies the run length in timesteps
run            2000
WARNING: Use special bonds = 0,1,1 with bond style fene (../bond_fene.cpp:188)
Memory usage per processor = 5.58517 Mbytes
Step Temp E_pair E_mol TotEng Press 
  632000 1.535026e-26            0    20.076308    20.076308 3.8580199e-15 
  632100 1.5215092e-26            0    20.076308    20.076308 9.150134e-16 
  632200 1.4960897e-26            0    20.076308    20.076308 3.0354838e-15 
  632300 1.4652811e-26            0    20.076308    20.076308 1.343011e-15 
  632400 1.4496027e-26            0    20.076308    20.076308 6.5663481e-16 
  632500 1.4460474e-26            0    20.076308    20.076308 2.1167527e-15 
  632600 1.4226678e-26            0    20.076308    20.076308 2.2598833e-15 
  632700 1.4076579e-26            0    20.076308    20.076308 1.9778045e-15 
  632800 1.3898245e-26            0    20.076308    20.076308 2.1576471e-15 
  632900 1.3679791e-26            0    20.076308    20.076308 4.6285086e-16 
  633000 1.3489324e-26            0    20.076308    20.076308 6.2549926e-16 
  633100 1.3333798e-26            0    20.076308    20.076308 8.0162423e-16 
  633200 1.3221703e-26            0    20.076308    20.076308 1.2723752e-15 
  633300 1.3131451e-26            0    20.076308    20.076308 7.1983533e-16 
  633400 1.3112325e-26            0    20.076308    20.076308 9.6659618e-16 
  633500 1.3132272e-26            0    20.076308    20.076308 1.4889299e-15 
  633600 1.3099602e-26            0    20.076308    20.076308 2.2120182e-16 
  633700 1.3102642e-26            0    20.076308    20.076308 2.0818995e-16 
  633800 1.3091277e-26            0    20.076308    20.076308 -6.849821e-16 
  633900 1.3063917e-26            0    20.076308    20.076308 -4.8236867e-16 
  634000 1.3056528e-26            0    20.076308    20.076308 -5.3627499e-16 
Loop time of 0.427591 on 4 procs (4 MPI x 1 OpenMP) for 2000 steps with 4000 atoms

Pair  time (%) = 0.0446568 (10.4438)
Bond  time (%) = 0.0612714 (14.3295)
Neigh time (%) = 0 (0)
Comm  time (%) = 0.112702 (26.3575)
Outpt time (%) = 0.00112498 (0.263097)
Other time (%) = 0.207835 (48.6061)

Nlocal:    1000 ave 1033 max 983 min
Histogram: 2 0 0 1 0 0 0 0 0 1
Nghost:    1052 ave 1070 max 1021 min
Histogram: 1 0 0 0 0 0 1 0 1 1
Neighs:    2671 ave 2909 max 2525 min
Histogram: 2 0 0 0 1 0 0 0 0 1

Total # of neighbors = 10684
Ave neighs/atom = 2.671
Ave special neighs/atom = 5.925
Neighbor list builds = 0
Dangerous builds = 0
shell          head -n 2 Temp.txt | tail -n 1 >> Tempfile.txt
shell          head -n 2 Bond.txt | tail -n 1 >> Bondfile.txt
next           myTempStr
next           myBondStr
if "${myBond} <= 0" then "jump imdinput.txt nobonds"
jump           imdinput.txt loop2here

# specifies the run length in timesteps
run            2000
WARNING: Use special bonds = 0,1,1 with bond style fene (../bond_fene.cpp:188)
Memory usage per processor = 5.58517 Mbytes
Step Temp E_pair E_mol TotEng Press 
  634000 1.3056528e-26            0    20.076308    20.076308 -5.3627499e-16 
  634100 1.305603e-26            0    20.076308    20.076308 4.7772157e-16 
  634200 1.3010881e-26            0    20.076308    20.076308 9.391783e-16 
  634300 1.296114e-26            0    20.076308    20.076308 3.977915e-16 
  634400 1.2940145e-26            0    20.076308    20.076308 2.253842e-16 
  634500 1.2957448e-26            0    20.076308    20.076308 6.6546429e-16 
  634600 1.3022462e-26            0    20.076308    20.076308 7.6444746e-16 
  634700 1.3058711e-26            0    20.076308    20.076308 1.2477455e-15 
  634800 1.3098461e-26            0    20.076308    20.076308 7.2494713e-16 
  634900 1.3118345e-26            0    20.076308    20.076308 9.2058992e-16 
  635000 1.3104966e-26            0    20.076308    20.076308 7.9325946e-16 
  635100 1.3129933e-26            0    20.076308    20.076308 3.5085582e-16 
  635200 1.3152385e-26            0    20.076308    20.076308 3.1042608e-16 
  635300 1.3160431e-26            0    20.076308    20.076308 7.4121197e-16 
  635400 1.3181104e-26            0    20.076308    20.076308 6.5756423e-16 
  635500 1.3137674e-26            0    20.076308    20.076308 8.1138314e-16 
  635600 1.3104892e-26            0    20.076308    20.076308 8.192832e-16 
  635700 1.3117437e-26            0    20.076308    20.076308 8.1370668e-16 
  635800 1.3116516e-26            0    20.076308    20.076308 7.1147055e-16 
  635900 1.309774e-26            0    20.076308    20.076308 4.981688e-16 
  636000 1.3046343e-26            0    20.076308    20.076308 2.1887827e-16 
Loop time of 0.42075 on 4 procs (4 MPI x 1 OpenMP) for 2000 steps with 4000 atoms

Pair  time (%) = 0.0435933 (10.3609)
Bond  time (%) = 0.059996 (14.2593)
Neigh time (%) = 0 (0)
Comm  time (%) = 0.111683 (26.5439)
Outpt time (%) = 0.00105429 (0.250573)
Other time (%) = 0.204423 (48.5854)

Nlocal:    1000 ave 1033 max 983 min
Histogram: 2 0 0 1 0 0 0 0 0 1
Nghost:    1052 ave 1070 max 1021 min
Histogram: 1 0 0 0 0 0 1 0 1 1
Neighs:    2671 ave 2909 max 2525 min
Histogram: 2 0 0 0 1 0 0 0 0 1

Total # of neighbors = 10684
Ave neighs/atom = 2.671
Ave special neighs/atom = 5.925
Neighbor list builds = 0
Dangerous builds = 0
shell          head -n 2 Temp.txt | tail -n 1 >> Tempfile.txt
shell          head -n 2 Bond.txt | tail -n 1 >> Bondfile.txt
next           myTempStr
next           myBondStr
if "${myBond} <= 0" then "jump imdinput.txt nobonds"
jump           imdinput.txt loop2here

# specifies the run length in timesteps
run            2000
WARNING: Use special bonds = 0,1,1 with bond style fene (../bond_fene.cpp:188)
Memory usage per processor = 5.58517 Mbytes
Step Temp E_pair E_mol TotEng Press 
  636000 1.3046343e-26            0    20.076308    20.076308 2.1887827e-16 
  636100 1.301906e-26            0    20.076308    20.076308 -4.0662099e-16 
  636200 1.2994577e-26            0    20.076308    20.076308 -2.3235485e-17 
  636300 1.2949063e-26            0    20.076308    20.076308 4.5773905e-16 
  636400 1.2944549e-26            0    20.076308    20.076308 3.4434989e-16 
  636500 1.2965093e-26            0    20.076308    20.076308 8.5088346e-16 
  636600 1.2963389e-26            0    20.076308    20.076308 7.7467107e-16 
  636700 1.2958453e-26            0    20.076308    20.076308  7.37959e-16 
  636800 1.2916578e-26            0    20.076308    20.076308 7.0821758e-16 
  636900 1.2863855e-26            0    20.076308    20.076308 6.4873474e-16 
  637000 1.2844999e-26            0    20.076308    20.076308 6.1527564e-16 
  637100 1.2845988e-26            0    20.076308    20.076308 1.1362152e-15 
  637200 1.2878218e-26            0    20.076308    20.076308 8.9456617e-16 
  637300 1.2929626e-26            0    20.076308    20.076308 9.3871359e-16 
  637400 1.2909481e-26            0    20.076308    20.076308 9.4754308e-16 
  637500 1.2892337e-26            0    20.076308    20.076308 7.1518823e-16 
  637600 1.2920416e-26            0    20.076308    20.076308 9.3174295e-16 
  637700 1.3016422e-26            0    20.076308    20.076308 8.1091843e-16 
  637800 1.3054387e-26            0    20.076308    20.076308 6.6546429e-16 
  637900 1.3030453e-26            0    20.076308    20.076308 3.2994389e-16 
  638000 1.2991595e-26            0    20.076308    20.076308 4.1080337e-16 
Loop time of 0.423935 on 4 procs (4 MPI x 1 OpenMP) for 2000 steps with 4000 atoms

Pair  time (%) = 0.044016 (10.3827)
Bond  time (%) = 0.0602899 (14.2215)
Neigh time (%) = 0 (0)
Comm  time (%) = 0.112818 (26.612)
Outpt time (%) = 0.00105846 (0.249675)
Other time (%) = 0.205753 (48.5341)

Nlocal:    1000 ave 1033 max 983 min
Histogram: 2 0 0 1 0 0 0 0 0 1
Nghost:    1052 ave 1070 max 1021 min
Histogram: 1 0 0 0 0 0 1 0 1 1
Neighs:    2671 ave 2909 max 2525 min
Histogram: 2 0 0 0 1 0 0 0 0 1

Total # of neighbors = 10684
Ave neighs/atom = 2.671
Ave special neighs/atom = 5.925
Neighbor list builds = 0
Dangerous builds = 0
shell          head -n 2 Temp.txt | tail -n 1 >> Tempfile.txt
shell          head -n 2 Bond.txt | tail -n 1 >> Bondfile.txt
next           myTempStr
next           myBondStr
if "${myBond} <= 0" then "jump imdinput.txt nobonds"
jump           imdinput.txt loop2here

# specifies the run length in timesteps
run            2000
WARNING: Use special bonds = 0,1,1 with bond style fene (../bond_fene.cpp:188)
Memory usage per processor = 5.58517 Mbytes
Step Temp E_pair E_mol TotEng Press 
  638000 1.2991595e-26            0    20.076308    20.076308 4.1080337e-16 
  638100 1.2971398e-26            0    20.076308    20.076308 6.9241745e-17 
  638200 1.2985658e-26            0    20.076308    20.076308 -5.4835745e-17 
  638300 1.2948539e-26            0    20.076308    20.076308 3.8106195e-16 
  638400 1.2930599e-26            0    20.076308    20.076308 4.837628e-16 
  638500 1.2894471e-26            0    20.076308    20.076308 2.0958407e-16 
  638600 1.2857359e-26            0    20.076308    20.076308 6.0551674e-16 
  638700 1.2820775e-26            0    20.076308    20.076308 5.7391648e-16 
  638800 1.2793956e-26            0    20.076308    20.076308 4.5773905e-16 
  638900 1.2812898e-26            0    20.076308    20.076308 6.134168e-16 
  639000 1.2861472e-26            0    20.076308    20.076308 6.6035248e-16 
  639100 1.2944862e-26            0    20.076308    20.076308 6.9334687e-16 
  639200 1.2990173e-26            0    20.076308    20.076308 9.006074e-16 
  639300 1.3012714e-26            0    20.076308    20.076308 1.2170747e-15 
  639400 1.3041204e-26            0    20.076308    20.076308 1.173392e-15 
  639500 1.3021492e-26            0    20.076308    20.076308 1.3922703e-15 
  639600 1.2996556e-26            0    20.076308    20.076308 1.4387412e-15 
  639700 1.2931331e-26            0    20.076308    20.076308 1.2779517e-15 
  639800 1.2880534e-26            0    20.076308    20.076308 1.2849223e-15 
  639900 1.2901895e-26            0    20.076308    20.076308 1.1060091e-15 
  640000 1.2944559e-26            0    20.076308    20.076308 1.0646499e-15 
Loop time of 0.427794 on 4 procs (4 MPI x 1 OpenMP) for 2000 steps with 4000 atoms

Pair  time (%) = 0.0445624 (10.4168)
Bond  time (%) = 0.0614496 (14.3643)
Neigh time (%) = 0 (0)
Comm  time (%) = 0.112301 (26.2511)
Outpt time (%) = 0.00116485 (0.272293)
Other time (%) = 0.208317 (48.6955)

Nlocal:    1000 ave 1033 max 983 min
Histogram: 2 0 0 1 0 0 0 0 0 1
Nghost:    1052 ave 1070 max 1021 min
Histogram: 1 0 0 0 0 0 1 0 1 1
Neighs:    2671 ave 2909 max 2525 min
Histogram: 2 0 0 0 1 0 0 0 0 1

Total # of neighbors = 10684
Ave neighs/atom = 2.671
Ave special neighs/atom = 5.925
Neighbor list builds = 0
Dangerous builds = 0
shell          head -n 2 Temp.txt | tail -n 1 >> Tempfile.txt
shell          head -n 2 Bond.txt | tail -n 1 >> Bondfile.txt
next           myTempStr
next           myBondStr
if "${myBond} <= 0" then "jump imdinput.txt nobonds"
jump           imdinput.txt loop2here

# specifies the run length in timesteps
run            2000
WARNING: Use special bonds = 0,1,1 with bond style fene (../bond_fene.cpp:188)
Memory usage per processor = 5.58517 Mbytes
Step Temp E_pair E_mol TotEng Press 
  640000 1.2944559e-26            0    20.076308    20.076308 1.0646499e-15 
  640100 1.3019264e-26            0    20.076308    20.076308 1.285387e-15 
  640200 1.3092343e-26            0    20.076308    20.076308 1.3439405e-15 
  640300 1.3128732e-26            0    20.076308    20.076308 1.8030736e-15 
  640400 1.3122406e-26            0    20.076308    20.076308 1.8509387e-15 
  640500 1.313789e-26            0    20.076308    20.076308 1.842574e-15 
  640600 1.3126232e-26            0    20.076308    20.076308 1.6144015e-15 
  640700 1.312254e-26            0    20.076308    20.076308 1.7677557e-15 
  640800 1.3088443e-26            0    20.076308    20.076308 1.5275008e-15 
  640900 1.307144e-26            0    20.076308    20.076308 1.2389161e-15 
  641000 1.3091254e-26            0    20.076308    20.076308 1.3197755e-15 
  641100 1.3085998e-26            0    20.076308    20.076308 7.6398275e-16 
  641200 1.3021785e-26            0    20.076308    20.076308 8.0069481e-16 
  641300 1.301976e-26            0    20.076308    20.076308 6.1481093e-16 
  641400 1.3059192e-26            0    20.076308    20.076308 6.1062855e-16 
  641500 1.309418e-26            0    20.076308    20.076308 7.3005894e-16 
  641600 1.3044199e-26            0    20.076308    20.076308 9.1408398e-16 
  641700 1.2991948e-26            0    20.076308    20.076308 6.3200519e-16 
  641800 1.2960763e-26            0    20.076308    20.076308 8.8806024e-16 
  641900 1.2934948e-26            0    20.076308    20.076308 4.7586273e-16 
  642000 1.2923552e-26            0    20.076308    20.076308 6.5245242e-16 
Loop time of 0.427528 on 4 procs (4 MPI x 1 OpenMP) for 2000 steps with 4000 atoms

Pair  time (%) = 0.0446693 (10.4483)
Bond  time (%) = 0.0613759 (14.356)
Neigh time (%) = 0 (0)
Comm  time (%) = 0.112177 (26.2386)
Outpt time (%) = 0.00113916 (0.266454)
Other time (%) = 0.208166 (48.6907)

Nlocal:    1000 ave 1033 max 983 min
Histogram: 2 0 0 1 0 0 0 0 0 1
Nghost:    1052 ave 1070 max 1021 min
Histogram: 1 0 0 0 0 0 1 0 1 1
Neighs:    2671 ave 2909 max 2525 min
Histogram: 2 0 0 0 1 0 0 0 0 1

Total # of neighbors = 10684
Ave neighs/atom = 2.671
Ave special neighs/atom = 5.925
Neighbor list builds = 0
Dangerous builds = 0
shell          head -n 2 Temp.txt | tail -n 1 >> Tempfile.txt
shell          head -n 2 Bond.txt | tail -n 1 >> Bondfile.txt
next           myTempStr
next           myBondStr
if "${myBond} <= 0" then "jump imdinput.txt nobonds"
jump           imdinput.txt loop2here

# specifies the run length in timesteps
run            2000
WARNING: Use special bonds = 0,1,1 with bond style fene (../bond_fene.cpp:188)
Memory usage per processor = 5.58517 Mbytes
Step Temp E_pair E_mol TotEng Press 
  642000 1.2923552e-26            0    20.076308    20.076308 6.5245242e-16 
  642100 1.288915e-26            0    20.076308    20.076308 7.3517075e-16 
  642200 1.2878808e-26            0    20.076308    20.076308 1.0191084e-15 
  642300 1.2888861e-26            0    20.076308    20.076308 1.0014494e-15 
  642400 1.2928802e-26            0    20.076308    20.076308  1.07255e-15 
  642500 1.2979779e-26            0    20.076308    20.076308 1.2858517e-15 
  642600 1.3019638e-26            0    20.076308    20.076308 1.1185562e-15 
  642700 1.3048583e-26            0    20.076308    20.076308 7.7978288e-16 
  642800 1.3018716e-26            0    20.076308    20.076308 5.8228125e-16 
  642900 1.2974129e-26            0    20.076308    20.076308 5.3395145e-16 
  643000 1.2967111e-26            0    20.076308    20.076308 9.196605e-16 
  643100 1.2963269e-26            0    20.076308    20.076308 1.0265437e-15 
  643200 1.2977057e-26            0    20.076308    20.076308 9.819316e-16 
  643300 1.2986597e-26            0    20.076308    20.076308 6.9288216e-16 
  643400 1.3029323e-26            0    20.076308    20.076308 7.8535939e-16 
  643500 1.3029553e-26            0    20.076308    20.076308 1.2351984e-15 
  643600 1.3008172e-26            0    20.076308    20.076308 1.1459741e-15 
  643700 1.2985439e-26            0    20.076308    20.076308 1.6139368e-15 
  643800 1.2946665e-26            0    20.076308    20.076308 1.3197755e-15 
  643900 1.2926709e-26            0    20.076308    20.076308 1.2091746e-15 
  644000 1.2889995e-26            0    20.076308    20.076308 5.5439867e-16 
Loop time of 0.426954 on 4 procs (4 MPI x 1 OpenMP) for 2000 steps with 4000 atoms

Pair  time (%) = 0.0445456 (10.4333)
Bond  time (%) = 0.0610476 (14.2984)
Neigh time (%) = 0 (0)
Comm  time (%) = 0.112546 (26.3602)
Outpt time (%) = 0.00110793 (0.259496)
Other time (%) = 0.207707 (48.6486)

Nlocal:    1000 ave 1033 max 983 min
Histogram: 2 0 0 1 0 0 0 0 0 1
Nghost:    1052 ave 1070 max 1021 min
Histogram: 1 0 0 0 0 0 1 0 1 1
Neighs:    2671 ave 2909 max 2525 min
Histogram: 2 0 0 0 1 0 0 0 0 1

Total # of neighbors = 10684
Ave neighs/atom = 2.671
Ave special neighs/atom = 5.925
Neighbor list builds = 0
Dangerous builds = 0
shell          head -n 2 Temp.txt | tail -n 1 >> Tempfile.txt
shell          head -n 2 Bond.txt | tail -n 1 >> Bondfile.txt
next           myTempStr
next           myBondStr
if "${myBond} <= 0" then "jump imdinput.txt nobonds"
jump           imdinput.txt loop2here

# specifies the run length in timesteps
run            2000
WARNING: Use special bonds = 0,1,1 with bond style fene (../bond_fene.cpp:188)
Memory usage per processor = 5.58517 Mbytes
Step Temp E_pair E_mol TotEng Press 
  644000 1.2889995e-26            0    20.076308    20.076308 5.5439867e-16 
  644100 1.288338e-26            0    20.076308    20.076308 4.2381525e-16 
  644200 1.2943329e-26            0    20.076308    20.076308 6.9892339e-16 
  644300 1.298997e-26            0    20.076308    20.076308 9.1454869e-16 
  644400 1.2999617e-26            0    20.076308    20.076308 9.0386037e-16 
  644500 1.3013586e-26            0    20.076308    20.076308 6.3014635e-16 
  644600 1.2975132e-26            0    20.076308    20.076308 4.8143925e-16 
  644700 1.2922031e-26            0    20.076308    20.076308 7.8768294e-16 
  644800 1.2885572e-26            0    20.076308    20.076308 5.1629248e-16 
  644900 1.2834537e-26            0    20.076308    20.076308 2.4629614e-16 
  645000 1.2787779e-26            0    20.076308    20.076308 3.5178524e-16 
  645100 1.2780733e-26            0    20.076308    20.076308 3.977915e-16 
  645200 1.2792078e-26            0    20.076308    20.076308 3.5224995e-16 
  645300 1.2858345e-26            0    20.076308    20.076308 6.3432874e-16 
  645400 1.2866174e-26            0    20.076308    20.076308 6.9148803e-16 
  645500 1.2886017e-26            0    20.076308    20.076308 9.5776669e-16 
  645600 1.2924054e-26            0    20.076308    20.076308 1.3550935e-15 
  645700 1.2943848e-26            0    20.076308    20.076308 1.8198032e-15 
  645800 1.293702e-26            0    20.076308    20.076308 1.7403378e-15 
  645900 1.2934485e-26            0    20.076308    20.076308 1.7663616e-15 
  646000 1.2905505e-26            0    20.076308    20.076308 1.6450723e-15 
Loop time of 0.42726 on 4 procs (4 MPI x 1 OpenMP) for 2000 steps with 4000 atoms

Pair  time (%) = 0.0445735 (10.4324)
Bond  time (%) = 0.0613148 (14.3507)
Neigh time (%) = 0 (0)
Comm  time (%) = 0.112663 (26.3687)
Outpt time (%) = 0.00116718 (0.273178)
Other time (%) = 0.207541 (48.575)

Nlocal:    1000 ave 1033 max 983 min
Histogram: 2 0 0 1 0 0 0 0 0 1
Nghost:    1052 ave 1070 max 1021 min
Histogram: 1 0 0 0 0 0 1 0 1 1
Neighs:    2671 ave 2909 max 2525 min
Histogram: 2 0 0 0 1 0 0 0 0 1

Total # of neighbors = 10684
Ave neighs/atom = 2.671
Ave special neighs/atom = 5.925
Neighbor list builds = 0
Dangerous builds = 0
shell          head -n 2 Temp.txt | tail -n 1 >> Tempfile.txt
shell          head -n 2 Bond.txt | tail -n 1 >> Bondfile.txt
next           myTempStr
next           myBondStr
if "${myBond} <= 0" then "jump imdinput.txt nobonds"
jump           imdinput.txt loop2here

# specifies the run length in timesteps
run            2000
WARNING: Use special bonds = 0,1,1 with bond style fene (../bond_fene.cpp:188)
Memory usage per processor = 5.58517 Mbytes
Step Temp E_pair E_mol TotEng Press 
  646000 1.2905505e-26            0    20.076308    20.076308 1.6450723e-15 
  646100 1.2897138e-26            0    20.076308    20.076308 1.5544539e-15 
  646200 1.291291e-26            0    20.076308    20.076308 1.4629061e-15 
  646300 1.2945719e-26            0    20.076308    20.076308 1.3681054e-15 
  646400 1.3010246e-26            0    20.076308    20.076308 1.3086225e-15 
  646500 1.3077879e-26            0    20.076308    20.076308 1.435953e-15 
  646600 1.3127645e-26            0    20.076308    20.076308 1.5135595e-15 
  646700 1.3110929e-26            0    20.076308    20.076308 1.0604675e-15 
  646800 1.3108551e-26            0    20.076308    20.076308 1.2705163e-15 
  646900 1.3134943e-26            0    20.076308    20.076308 1.1970922e-15 
  647000 1.3168158e-26            0    20.076308    20.076308 1.3132696e-15 
  647100 1.3167967e-26            0    20.076308    20.076308 1.3128049e-15 
  647200 1.3144353e-26            0    20.076308    20.076308 1.4475707e-15 
  647300 1.3132416e-26            0    20.076308    20.076308 1.375076e-15 
  647400 1.3150291e-26            0    20.076308    20.076308 1.3188461e-15 
  647500 1.3164033e-26            0    20.076308    20.076308 1.4210823e-15 
  647600 1.3171177e-26            0    20.076308    20.076308 1.4145763e-15 
  647700 1.3167046e-26            0    20.076308    20.076308 1.4117881e-15 
  647800 1.310838e-26            0    20.076308    20.076308 1.8323503e-15 
  647900 1.3081451e-26            0    20.076308    20.076308 1.6302016e-15 
  648000 1.3045412e-26            0    20.076308    20.076308 1.2960754e-15 
Loop time of 0.427519 on 4 procs (4 MPI x 1 OpenMP) for 2000 steps with 4000 atoms

Pair  time (%) = 0.0446954 (10.4546)
Bond  time (%) = 0.0612521 (14.3273)
Neigh time (%) = 0 (0)
Comm  time (%) = 0.112603 (26.3387)
Outpt time (%) = 0.00113249 (0.264898)
Other time (%) = 0.207836 (48.6145)

Nlocal:    1000 ave 1033 max 983 min
Histogram: 2 0 0 1 0 0 0 0 0 1
Nghost:    1052 ave 1070 max 1021 min
Histogram: 1 0 0 0 0 0 1 0 1 1
Neighs:    2671 ave 2909 max 2525 min
Histogram: 2 0 0 0 1 0 0 0 0 1

Total # of neighbors = 10684
Ave neighs/atom = 2.671
Ave special neighs/atom = 5.925
Neighbor list builds = 0
Dangerous builds = 0
shell          head -n 2 Temp.txt | tail -n 1 >> Tempfile.txt
shell          head -n 2 Bond.txt | tail -n 1 >> Bondfile.txt
next           myTempStr
next           myBondStr
if "${myBond} <= 0" then "jump imdinput.txt nobonds"
jump           imdinput.txt loop2here

# specifies the run length in timesteps
run            2000
WARNING: Use special bonds = 0,1,1 with bond style fene (../bond_fene.cpp:188)
Memory usage per processor = 5.58517 Mbytes
Step Temp E_pair E_mol TotEng Press 
  648000 1.3045412e-26            0    20.076308    20.076308 1.2960754e-15 
  648100 1.3007904e-26            0    20.076308    20.076308 1.3090872e-15 
  648200 1.2998015e-26            0    20.076308    20.076308 9.4289598e-16 
  648300 1.2999056e-26            0    20.076308    20.076308 7.9000649e-16 
  648400 1.2955029e-26            0    20.076308    20.076308 1.0488498e-15 
  648500 1.2956266e-26            0    20.076308    20.076308 1.0112083e-15 
  648600 1.2991444e-26            0    20.076308    20.076308 9.8936695e-16 
  648700 1.3006983e-26            0    20.076308    20.076308 1.0372321e-15 
  648800 1.2999649e-26            0    20.076308    20.076308 7.6444746e-16 
  648900 1.2955037e-26            0    20.076308    20.076308 3.0299072e-16 
  649000 1.2907238e-26            0    20.076308    20.076308 1.8960156e-16 
  649100 1.2846914e-26            0    20.076308    20.076308 3.1414376e-16 
  649200 1.2814246e-26            0    20.076308    20.076308 4.358977e-16 
  649300 1.2814726e-26            0    20.076308    20.076308 -2.4629614e-17 
  649400 1.283219e-26            0    20.076308    20.076308 1.1524801e-16 
  649500 1.2893685e-26            0    20.076308    20.076308 1.9796633e-16 
  649600 1.2909494e-26            0    20.076308    20.076308 5.1118067e-18 
  649700 1.2919951e-26            0    20.076308    20.076308 2.2399008e-16 
  649800 1.289671e-26            0    20.076308    20.076308 1.4080704e-16 
  649900 1.2890784e-26            0    20.076308    20.076308 7.2215887e-16 
  650000 1.286193e-26            0    20.076308    20.076308 6.3107577e-16 
Loop time of 0.419054 on 4 procs (4 MPI x 1 OpenMP) for 2000 steps with 4000 atoms

Pair  time (%) = 0.0435129 (10.3836)
Bond  time (%) = 0.0598041 (14.2712)
Neigh time (%) = 0 (0)
Comm  time (%) = 0.11127 (26.5527)
Outpt time (%) = 0.00108087 (0.257931)
Other time (%) = 0.203386 (48.5345)

Nlocal:    1000 ave 1033 max 983 min
Histogram: 2 0 0 1 0 0 0 0 0 1
Nghost:    1052 ave 1070 max 1021 min
Histogram: 1 0 0 0 0 0 1 0 1 1
Neighs:    2671 ave 2909 max 2525 min
Histogram: 2 0 0 0 1 0 0 0 0 1

Total # of neighbors = 10684
Ave neighs/atom = 2.671
Ave special neighs/atom = 5.925
Neighbor list builds = 0
Dangerous builds = 0
shell          head -n 2 Temp.txt | tail -n 1 >> Tempfile.txt
shell          head -n 2 Bond.txt | tail -n 1 >> Bondfile.txt
next           myTempStr
next           myBondStr
if "${myBond} <= 0" then "jump imdinput.txt nobonds"
jump           imdinput.txt loop2here

# specifies the run length in timesteps
run            2000
WARNING: Use special bonds = 0,1,1 with bond style fene (../bond_fene.cpp:188)
Memory usage per processor = 5.58517 Mbytes
Step Temp E_pair E_mol TotEng Press 
  650000 1.286193e-26            0    20.076308    20.076308 6.3107577e-16 
  650100 1.2860696e-26            0    20.076308    20.076308 6.8312326e-16 
  650200 1.2881042e-26            0    20.076308    20.076308 7.4957675e-16 
  650300 1.2917087e-26            0    20.076308    20.076308 1.0655793e-15 
  650400 1.2927508e-26            0    20.076308    20.076308 1.0130671e-15 
  650500 1.295458e-26            0    20.076308    20.076308 1.1441153e-15 
  650600 1.2947438e-26            0    20.076308    20.076308 1.1915157e-15 
  650700 1.2965269e-26            0    20.076308    20.076308 1.4773121e-15 
  650800 1.2999977e-26            0    20.076308    20.076308 1.5990661e-15 
  650900 1.303159e-26            0    20.076308    20.076308 1.5242478e-15 
  651000 1.3039302e-26            0    20.076308    20.076308 1.2677281e-15 
  651100 1.3031827e-26            0    20.076308    20.076308 1.2379866e-15 
  651200 1.3039553e-26            0    20.076308    20.076308 1.1822215e-15 
  651300 1.3008216e-26            0    20.076308    20.076308 1.3290697e-15 
  651400 1.2969641e-26            0    20.076308    20.076308 1.2417043e-15 
  651500 1.2940641e-26            0    20.076308    20.076308 1.2319454e-15 
  651600 1.2931073e-26            0    20.076308    20.076308 1.2923577e-15 
  651700 1.2930694e-26            0    20.076308    20.076308 1.4141116e-15 
  651800 1.2956253e-26            0    20.076308    20.076308 1.5683952e-15 
  651900 1.2974291e-26            0    20.076308    20.076308 1.4220117e-15 
  652000 1.2971109e-26            0    20.076308    20.076308 1.6204427e-15 
Loop time of 0.421772 on 4 procs (4 MPI x 1 OpenMP) for 2000 steps with 4000 atoms

Pair  time (%) = 0.0438038 (10.3857)
Bond  time (%) = 0.0602088 (14.2752)
Neigh time (%) = 0 (0)
Comm  time (%) = 0.112123 (26.5837)
Outpt time (%) = 0.00106788 (0.253188)
Other time (%) = 0.204569 (48.5023)

Nlocal:    1000 ave 1033 max 983 min
Histogram: 2 0 0 1 0 0 0 0 0 1
Nghost:    1052 ave 1070 max 1021 min
Histogram: 1 0 0 0 0 0 1 0 1 1
Neighs:    2671 ave 2909 max 2525 min
Histogram: 2 0 0 0 1 0 0 0 0 1

Total # of neighbors = 10684
Ave neighs/atom = 2.671
Ave special neighs/atom = 5.925
Neighbor list builds = 0
Dangerous builds = 0
shell          head -n 2 Temp.txt | tail -n 1 >> Tempfile.txt
shell          head -n 2 Bond.txt | tail -n 1 >> Bondfile.txt
next           myTempStr
next           myBondStr
if "${myBond} <= 0" then "jump imdinput.txt nobonds"
jump           imdinput.txt loop2here

# specifies the run length in timesteps
run            2000
WARNING: Use special bonds = 0,1,1 with bond style fene (../bond_fene.cpp:188)
Memory usage per processor = 5.58517 Mbytes
Step Temp E_pair E_mol TotEng Press 
  652000 1.2971109e-26            0    20.076308    20.076308 1.6204427e-15 
  652100 1.2983849e-26            0    20.076308    20.076308 1.4210823e-15 
  652200 1.2980309e-26            0    20.076308    20.076308 1.018179e-15 
  652300 1.2975064e-26            0    20.076308    20.076308 9.9029637e-16 
  652400 1.3005082e-26            0    20.076308    20.076308 1.5535245e-15 
  652500 1.3025516e-26            0    20.076308    20.076308 1.6241604e-15 
  652600 1.3061953e-26            0    20.076308    20.076308 1.3523052e-15 
  652700 1.308795e-26            0    20.076308    20.076308 1.3871585e-15 
  652800 1.3121176e-26            0    20.076308    20.076308 1.3123402e-15 
  652900 1.3104009e-26            0    20.076308    20.076308 1.0400203e-15 
  653000 1.3095886e-26            0    20.076308    20.076308 8.7365424e-16 
  653100 1.3069794e-26            0    20.076308    20.076308 6.7522319e-16 
  653200 1.304915e-26            0    20.076308    20.076308 6.9427629e-16 
  653300 1.3055823e-26            0    20.076308    20.076308 8.1974791e-16 
  653400 1.3059039e-26            0    20.076308    20.076308 7.7560049e-16 
  653500 1.3086622e-26            0    20.076308    20.076308 9.772845e-16 
  653600 1.3034577e-26            0    20.076308    20.076308 6.3525816e-16 
  653700 1.2976198e-26            0    20.076308    20.076308 6.036579e-16 
  653800 1.2942673e-26            0    20.076308    20.076308 5.5532809e-16 
  653900 1.2895435e-26            0    20.076308    20.076308 8.4855991e-16 
  654000 1.2873563e-26            0    20.076308    20.076308 9.4521953e-16 
Loop time of 0.424319 on 4 procs (4 MPI x 1 OpenMP) for 2000 steps with 4000 atoms

Pair  time (%) = 0.0444488 (10.4753)
Bond  time (%) = 0.0614701 (14.4868)
Neigh time (%) = 0 (0)
Comm  time (%) = 0.112559 (26.5271)
Outpt time (%) = 0.00106847 (0.251809)
Other time (%) = 0.204772 (48.259)

Nlocal:    1000 ave 1033 max 983 min
Histogram: 2 0 0 1 0 0 0 0 0 1
Nghost:    1052 ave 1070 max 1021 min
Histogram: 1 0 0 0 0 0 1 0 1 1
Neighs:    2671 ave 2909 max 2525 min
Histogram: 2 0 0 0 1 0 0 0 0 1

Total # of neighbors = 10684
Ave neighs/atom = 2.671
Ave special neighs/atom = 5.925
Neighbor list builds = 0
Dangerous builds = 0
shell          head -n 2 Temp.txt | tail -n 1 >> Tempfile.txt
shell          head -n 2 Bond.txt | tail -n 1 >> Bondfile.txt
next           myTempStr
next           myBondStr
if "${myBond} <= 0" then "jump imdinput.txt nobonds"
jump           imdinput.txt loop2here

# specifies the run length in timesteps
run            2000
WARNING: Use special bonds = 0,1,1 with bond style fene (../bond_fene.cpp:188)
Memory usage per processor = 5.58517 Mbytes
Step Temp E_pair E_mol TotEng Press 
  654000 1.2873563e-26            0    20.076308    20.076308 9.4521953e-16 
  654100 1.2858729e-26            0    20.076308    20.076308 8.0627133e-16 
  654200 1.2862965e-26            0    20.076308    20.076308 9.8797282e-16 
  654300 1.2894891e-26            0    20.076308    20.076308 9.772845e-16 
  654400 1.2934614e-26            0    20.076308    20.076308 7.4492965e-16 
  654500 1.2978022e-26            0    20.076308    20.076308 6.9752926e-16 
  654600 1.3055055e-26            0    20.076308    20.076308 6.0691087e-16 
  654700 1.308899e-26            0    20.076308    20.076308 8.6482475e-16 
  654800 1.3070996e-26            0    20.076308    20.076308 1.0995031e-15 
  654900 1.3071633e-26            0    20.076308    20.076308 1.1794332e-15 
  655000 1.3064819e-26            0    20.076308    20.076308 1.1064738e-15 
  655100 1.3053786e-26            0    20.076308    20.076308 1.0274731e-15 
  655200 1.3051608e-26            0    20.076308    20.076308 9.5311959e-16 
  655300 1.298662e-26            0    20.076308    20.076308 1.3523052e-15 
  655400 1.2958627e-26            0    20.076308    20.076308 1.2960754e-15 
  655500 1.2934115e-26            0    20.076308    20.076308 9.8239631e-16 
  655600 1.2945567e-26            0    20.076308    20.076308 1.277487e-15 
  655700 1.2956561e-26            0    20.076308    20.076308 1.5186713e-15 
  655800 1.2971006e-26            0    20.076308    20.076308 1.3369698e-15 
  655900 1.2992048e-26            0    20.076308    20.076308 8.4437752e-16 
  656000 1.2986262e-26            0    20.076308    20.076308 7.8117701e-16 
Loop time of 0.425065 on 4 procs (4 MPI x 1 OpenMP) for 2000 steps with 4000 atoms

Pair  time (%) = 0.0445363 (10.4775)
Bond  time (%) = 0.0611399 (14.3837)
Neigh time (%) = 0 (0)
Comm  time (%) = 0.11227 (26.4125)
Outpt time (%) = 0.0010829 (0.25476)
Other time (%) = 0.206036 (48.4715)

Nlocal:    1000 ave 1033 max 983 min
Histogram: 2 0 0 1 0 0 0 0 0 1
Nghost:    1052 ave 1070 max 1021 min
Histogram: 1 0 0 0 0 0 1 0 1 1
Neighs:    2671 ave 2909 max 2525 min
Histogram: 2 0 0 0 1 0 0 0 0 1

Total # of neighbors = 10684
Ave neighs/atom = 2.671
Ave special neighs/atom = 5.925
Neighbor list builds = 0
Dangerous builds = 0
shell          head -n 2 Temp.txt | tail -n 1 >> Tempfile.txt
shell          head -n 2 Bond.txt | tail -n 1 >> Bondfile.txt
next           myTempStr
next           myBondStr
if "${myBond} <= 0" then "jump imdinput.txt nobonds"
jump           imdinput.txt loop2here

# specifies the run length in timesteps
run            2000
WARNING: Use special bonds = 0,1,1 with bond style fene (../bond_fene.cpp:188)
Memory usage per processor = 5.58517 Mbytes
Step Temp E_pair E_mol TotEng Press 
  656000 1.2986262e-26            0    20.076308    20.076308 7.8117701e-16 
  656100 1.2989965e-26            0    20.076308    20.076308 4.6192144e-16 
  656200 1.2981423e-26            0    20.076308    20.076308 7.1890591e-16 
  656300 1.2977866e-26            0    20.076308    20.076308 4.2102699e-16 
  656400 1.2976595e-26            0    20.076308    20.076308 6.1434622e-16 
  656500 1.2945177e-26            0    20.076308    20.076308 1.0344438e-15 
  656600 1.2950266e-26            0    20.076308    20.076308 1.3890173e-15 
  656700 1.2937179e-26            0    20.076308    20.076308 9.9354934e-16 
  656800 1.2945178e-26            0    20.076308    20.076308 1.1050797e-15 
  656900 1.2969917e-26            0    20.076308    20.076308 1.0511733e-15 
  657000 1.2985443e-26            0    20.076308    20.076308 1.141327e-15 
  657100 1.2984061e-26            0    20.076308    20.076308 1.1245975e-15 
  657200 1.2955449e-26            0    20.076308    20.076308 1.0744088e-15 
  657300 1.2944332e-26            0    20.076308    20.076308 1.1817568e-15 
  657400 1.2921353e-26            0    20.076308    20.076308 1.2746987e-15 
  657500 1.2911777e-26            0    20.076308    20.076308 1.2895694e-15 
  657600 1.2935884e-26            0    20.076308    20.076308 1.0739441e-15 
  657700 1.2948217e-26            0    20.076308    20.076308 9.8797282e-16 
  657800 1.2968983e-26            0    20.076308    20.076308 1.0465262e-15 
  657900 1.3005329e-26            0    20.076308    20.076308 1.2830635e-15 
  658000 1.3036495e-26            0    20.076308    20.076308 1.0679029e-15 
Loop time of 0.423862 on 4 procs (4 MPI x 1 OpenMP) for 2000 steps with 4000 atoms

Pair  time (%) = 0.044655 (10.5353)
Bond  time (%) = 0.0613036 (14.4631)
Neigh time (%) = 0 (0)
Comm  time (%) = 0.112296 (26.4936)
Outpt time (%) = 0.00109875 (0.259224)
Other time (%) = 0.204508 (48.2488)

Nlocal:    1000 ave 1033 max 983 min
Histogram: 2 0 0 1 0 0 0 0 0 1
Nghost:    1052 ave 1070 max 1021 min
Histogram: 1 0 0 0 0 0 1 0 1 1
Neighs:    2671 ave 2909 max 2525 min
Histogram: 2 0 0 0 1 0 0 0 0 1

Total # of neighbors = 10684
Ave neighs/atom = 2.671
Ave special neighs/atom = 5.925
Neighbor list builds = 0
Dangerous builds = 0
shell          head -n 2 Temp.txt | tail -n 1 >> Tempfile.txt
shell          head -n 2 Bond.txt | tail -n 1 >> Bondfile.txt
next           myTempStr
next           myBondStr
if "${myBond} <= 0" then "jump imdinput.txt nobonds"
jump           imdinput.txt loop2here

# specifies the run length in timesteps
run            2000
WARNING: Use special bonds = 0,1,1 with bond style fene (../bond_fene.cpp:188)
Memory usage per processor = 5.58517 Mbytes
Step Temp E_pair E_mol TotEng Press 
  658000 1.3036495e-26            0    20.076308    20.076308 1.0679029e-15 
  658100 1.3041709e-26            0    20.076308    20.076308 8.8387785e-16 
  658200 1.3049482e-26            0    20.076308    20.076308 9.726374e-16 
  658300 1.3063901e-26            0    20.076308    20.076308 6.3154048e-16 
  658400 1.3070408e-26            0    20.076308    20.076308 5.4696332e-16 
  658500 1.3079682e-26            0    20.076308    20.076308 5.413868e-16 
  658600 1.3067845e-26            0    20.076308    20.076308 1.0177142e-15 
  658700 1.3096116e-26            0    20.076308    20.076308 1.0874207e-15 
  658800 1.3113404e-26            0    20.076308    20.076308 1.2519279e-15 
  658900 1.3129295e-26            0    20.076308    20.076308 1.1417917e-15 
  659000 1.3092215e-26            0    20.076308    20.076308 1.5010123e-15 
  659100 1.3025662e-26            0    20.076308    20.076308 1.4201528e-15 
  659200 1.2987525e-26            0    20.076308    20.076308 1.4629061e-15 
  659300 1.2924271e-26            0    20.076308    20.076308 1.0363026e-15 
  659400 1.2895688e-26            0    20.076308    20.076308 8.8434256e-16 
  659500 1.2865129e-26            0    20.076308    20.076308 9.9912585e-16 
  659600 1.2860026e-26            0    20.076308    20.076308 8.3090094e-16 
  659700 1.2879163e-26            0    20.076308    20.076308 9.5033134e-16 
  659800 1.2868233e-26            0    20.076308    20.076308 6.8265855e-16 
  659900 1.2856095e-26            0    20.076308    20.076308 8.1974791e-16 
  660000 1.2847834e-26            0    20.076308    20.076308 8.2671856e-16 
Loop time of 0.425432 on 4 procs (4 MPI x 1 OpenMP) for 2000 steps with 4000 atoms

Pair  time (%) = 0.0446663 (10.4991)
Bond  time (%) = 0.0616841 (14.4992)
Neigh time (%) = 0 (0)
Comm  time (%) = 0.112203 (26.374)
Outpt time (%) = 0.00110191 (0.25901)
Other time (%) = 0.205776 (48.3688)

Nlocal:    1000 ave 1033 max 983 min
Histogram: 2 0 0 1 0 0 0 0 0 1
Nghost:    1052 ave 1070 max 1021 min
Histogram: 1 0 0 0 0 0 1 0 1 1
Neighs:    2671 ave 2909 max 2525 min
Histogram: 2 0 0 0 1 0 0 0 0 1

Total # of neighbors = 10684
Ave neighs/atom = 2.671
Ave special neighs/atom = 5.925
Neighbor list builds = 0
Dangerous builds = 0
shell          head -n 2 Temp.txt | tail -n 1 >> Tempfile.txt
shell          head -n 2 Bond.txt | tail -n 1 >> Bondfile.txt
next           myTempStr
next           myBondStr
if "${myBond} <= 0" then "jump imdinput.txt nobonds"
jump           imdinput.txt loop2here

# specifies the run length in timesteps
run            2000
WARNING: Use special bonds = 0,1,1 with bond style fene (../bond_fene.cpp:188)
Memory usage per processor = 5.58517 Mbytes
Step Temp E_pair E_mol TotEng Press 
  660000 1.2847834e-26            0    20.076308    20.076308 8.2671856e-16 
  660100 1.2868091e-26            0    20.076308    20.076308 6.3386403e-16 
  660200 1.2863373e-26            0    20.076308    20.076308 5.4928687e-16 
  660300 1.2888473e-26            0    20.076308    20.076308 5.6229874e-16 
  660400 1.2947755e-26            0    20.076308    20.076308  6.94741e-16 
  660500 1.3001115e-26            0    20.076308    20.076308 7.5840623e-16 
  660600 1.3049512e-26            0    20.076308    20.076308 1.1101915e-15 
  660700 1.3041852e-26            0    20.076308    20.076308 1.1287799e-15 
  660800 1.3097604e-26            0    20.076308    20.076308 1.2658692e-15 
  660900 1.3181828e-26            0    20.076308    20.076308 1.018179e-15 
  661000 1.3232656e-26            0    20.076308    20.076308 7.2680597e-16 
  661100 1.3205728e-26            0    20.076308    20.076308 9.2337817e-16 
  661200 1.3155813e-26            0    20.076308    20.076308 1.1320328e-15 
  661300 1.3104763e-26            0    20.076308    20.076308 9.675256e-16 
  661400 1.2996501e-26            0    20.076308    20.076308 1.0651146e-15 
  661500 1.2936453e-26            0    20.076308    20.076308 1.018179e-15 
  661600 1.2915643e-26            0    20.076308    20.076308 9.9215521e-16 
  661700 1.2924256e-26            0    20.076308    20.076308 9.2384288e-16 
  661800 1.294193e-26            0    20.076308    20.076308  1.00842e-15 
  661900 1.2939516e-26            0    20.076308    20.076308 1.4010997e-15 
  662000 1.2968397e-26            0    20.076308    20.076308 1.3123402e-15 
Loop time of 0.424635 on 4 procs (4 MPI x 1 OpenMP) for 2000 steps with 4000 atoms

Pair  time (%) = 0.0446817 (10.5224)
Bond  time (%) = 0.0615115 (14.4857)
Neigh time (%) = 0 (0)
Comm  time (%) = 0.112211 (26.4252)
Outpt time (%) = 0.00108355 (0.255173)
Other time (%) = 0.205148 (48.3115)

Nlocal:    1000 ave 1033 max 983 min
Histogram: 2 0 0 1 0 0 0 0 0 1
Nghost:    1052 ave 1070 max 1021 min
Histogram: 1 0 0 0 0 0 1 0 1 1
Neighs:    2671 ave 2909 max 2525 min
Histogram: 2 0 0 0 1 0 0 0 0 1

Total # of neighbors = 10684
Ave neighs/atom = 2.671
Ave special neighs/atom = 5.925
Neighbor list builds = 0
Dangerous builds = 0
shell          head -n 2 Temp.txt | tail -n 1 >> Tempfile.txt
shell          head -n 2 Bond.txt | tail -n 1 >> Bondfile.txt
next           myTempStr
next           myBondStr
if "${myBond} <= 0" then "jump imdinput.txt nobonds"
jump           imdinput.txt loop2here

# specifies the run length in timesteps
run            2000
WARNING: Use special bonds = 0,1,1 with bond style fene (../bond_fene.cpp:188)
Memory usage per processor = 5.58517 Mbytes
Step Temp E_pair E_mol TotEng Press 
  662000 1.2968397e-26            0    20.076308    20.076308 1.3123402e-15 
  662100 1.2996781e-26            0    20.076308    20.076308 1.4926476e-15 
  662200 1.3040273e-26            0    20.076308    20.076308 1.5646776e-15 
  662300 1.3073239e-26            0    20.076308    20.076308 1.5326126e-15 
  662400 1.3078931e-26            0    20.076308    20.076308 1.5298243e-15 
  662500 1.3072714e-26            0    20.076308    20.076308 1.3044401e-15 
  662600 1.3007687e-26            0    20.076308    20.076308 1.1594507e-15 
  662700 1.2977681e-26            0    20.076308    20.076308 1.0655793e-15 
  662800 1.2964258e-26            0    20.076308    20.076308 1.3114108e-15 
  662900 1.2916981e-26            0    20.076308    20.076308 1.2561103e-15 
  663000 1.2893715e-26            0    20.076308    20.076308 1.3467287e-15 
  663100 1.2918375e-26            0    20.076308    20.076308 1.1627037e-15 
  663200 1.2910084e-26            0    20.076308    20.076308 5.5161041e-16 
  663300 1.2904629e-26            0    20.076308    20.076308 6.8126442e-16 
  663400 1.2917553e-26            0    20.076308    20.076308 7.1425881e-16 
  663500 1.2954405e-26            0    20.076308    20.076308 8.6064236e-16 
  663600 1.2995398e-26            0    20.076308    20.076308 8.9503088e-16 
  663700 1.3032569e-26            0    20.076308    20.076308 1.2951459e-15 
  663800 1.3053283e-26            0    20.076308    20.076308 1.0009847e-15 
  663900 1.3104985e-26            0    20.076308    20.076308 1.061397e-15 
  664000 1.3151955e-26            0    20.076308    20.076308 1.2268336e-15 
Loop time of 0.424952 on 4 procs (4 MPI x 1 OpenMP) for 2000 steps with 4000 atoms

Pair  time (%) = 0.0446838 (10.515)
Bond  time (%) = 0.0616916 (14.5173)
Neigh time (%) = 0 (0)
Comm  time (%) = 0.111764 (26.3005)
Outpt time (%) = 0.00109595 (0.2579)
Other time (%) = 0.205716 (48.4093)

Nlocal:    1000 ave 1033 max 983 min
Histogram: 2 0 0 1 0 0 0 0 0 1
Nghost:    1052 ave 1070 max 1021 min
Histogram: 1 0 0 0 0 0 1 0 1 1
Neighs:    2671 ave 2909 max 2525 min
Histogram: 2 0 0 0 1 0 0 0 0 1

Total # of neighbors = 10684
Ave neighs/atom = 2.671
Ave special neighs/atom = 5.925
Neighbor list builds = 0
Dangerous builds = 0
shell          head -n 2 Temp.txt | tail -n 1 >> Tempfile.txt
shell          head -n 2 Bond.txt | tail -n 1 >> Bondfile.txt
next           myTempStr
next           myBondStr
if "${myBond} <= 0" then "jump imdinput.txt nobonds"
jump           imdinput.txt loop2here

# specifies the run length in timesteps
run            2000
WARNING: Use special bonds = 0,1,1 with bond style fene (../bond_fene.cpp:188)
Memory usage per processor = 5.58517 Mbytes
Step Temp E_pair E_mol TotEng Press 
  664000 1.3151955e-26            0    20.076308    20.076308 1.2268336e-15 
  664100 1.3143245e-26            0    20.076308    20.076308 1.1315681e-15 
  664200 1.3112464e-26            0    20.076308    20.076308 7.1100584e-16 
  664300 1.3069984e-26            0    20.076308    20.076308 6.2410513e-16 
  664400 1.3047848e-26            0    20.076308    20.076308 6.7197023e-16 
  664500 1.3065557e-26            0    20.076308    20.076308 9.7449624e-16 
  664600 1.3068538e-26            0    20.076308    20.076308 1.1311034e-15 
  664700 1.3092134e-26            0    20.076308    20.076308 1.098109e-15 
  664800 1.3123412e-26            0    20.076308    20.076308 8.1370668e-16 
  664900 1.3132198e-26            0    20.076308    20.076308 1.026079e-15 
  665000 1.3054518e-26            0    20.076308    20.076308 9.2988411e-16 
  665100 1.2964526e-26            0    20.076308    20.076308 5.5672222e-16 
  665200 1.2907457e-26            0    20.076308    20.076308 9.484725e-16 
  665300 1.2842678e-26            0    20.076308    20.076308 7.807123e-16 
  665400 1.2825361e-26            0    20.076308    20.076308 8.1138314e-16 
  665500 1.2853134e-26            0    20.076308    20.076308 5.1025125e-16 
  665600 1.2877439e-26            0    20.076308    20.076308 6.8544681e-16 
  665700 1.2884181e-26            0    20.076308    20.076308 1.2714457e-15 
  665800 1.2892019e-26            0    20.076308    20.076308 1.4508237e-15 
  665900 1.2896255e-26            0    20.076308    20.076308 1.0339791e-15 
  666000 1.285391e-26            0    20.076308    20.076308 8.6761301e-16 
Loop time of 0.424177 on 4 procs (4 MPI x 1 OpenMP) for 2000 steps with 4000 atoms

Pair  time (%) = 0.0447211 (10.543)
Bond  time (%) = 0.0613506 (14.4635)
Neigh time (%) = 0 (0)
Comm  time (%) = 0.112498 (26.5214)
Outpt time (%) = 0.00107789 (0.254114)
Other time (%) = 0.204529 (48.218)

Nlocal:    1000 ave 1033 max 983 min
Histogram: 2 0 0 1 0 0 0 0 0 1
Nghost:    1052 ave 1070 max 1021 min
Histogram: 1 0 0 0 0 0 1 0 1 1
Neighs:    2671 ave 2909 max 2525 min
Histogram: 2 0 0 0 1 0 0 0 0 1

Total # of neighbors = 10684
Ave neighs/atom = 2.671
Ave special neighs/atom = 5.925
Neighbor list builds = 0
Dangerous builds = 0
shell          head -n 2 Temp.txt | tail -n 1 >> Tempfile.txt
shell          head -n 2 Bond.txt | tail -n 1 >> Bondfile.txt
next           myTempStr
next           myBondStr
if "${myBond} <= 0" then "jump imdinput.txt nobonds"
jump           imdinput.txt loop2here

# specifies the run length in timesteps
run            2000
WARNING: Use special bonds = 0,1,1 with bond style fene (../bond_fene.cpp:188)
Memory usage per processor = 5.58517 Mbytes
Step Temp E_pair E_mol TotEng Press 
  666000 1.285391e-26            0    20.076308    20.076308 8.6761301e-16 
  666100 1.2840731e-26            0    20.076308    20.076308 9.7449624e-16 
  666200 1.2854192e-26            0    20.076308    20.076308 8.2764798e-16 
  666300 1.2896642e-26            0    20.076308    20.076308 1.0660441e-15 
  666400 1.2964941e-26            0    20.076308    20.076308 9.0478979e-16 
  666500 1.3056919e-26            0    20.076308    20.076308 8.8991908e-16 
  666600 1.3100068e-26            0    20.076308    20.076308 7.3935313e-16 
  666700 1.3151016e-26            0    20.076308    20.076308 5.9994022e-16 
  666800 1.3177597e-26            0    20.076308    20.076308 4.8515693e-16 
  666900 1.3202946e-26            0    20.076308    20.076308 4.3822125e-16 
  667000 1.3240095e-26            0    20.076308    20.076308 6.4083468e-16 
  667100 1.3216262e-26            0    20.076308    20.076308 1.2491397e-15 
  667200 1.3151577e-26            0    20.076308    20.076308 1.3662465e-15 
  667300 1.3048417e-26            0    20.076308    20.076308 1.2114982e-15 
  667400 1.2991954e-26            0    20.076308    20.076308 1.1933745e-15 
  667500 1.2934921e-26            0    20.076308    20.076308 1.1654919e-15 
  667600 1.2860065e-26            0    20.076308    20.076308 1.4773121e-15 
  667700 1.2813358e-26            0    20.076308    20.076308 1.5326126e-15 
  667800 1.2770663e-26            0    20.076308    20.076308 1.8620918e-15 
  667900 1.2791478e-26            0    20.076308    20.076308 1.6218369e-15 
  668000 1.2847162e-26            0    20.076308    20.076308 1.8848625e-15 
Loop time of 0.424758 on 4 procs (4 MPI x 1 OpenMP) for 2000 steps with 4000 atoms

Pair  time (%) = 0.0449492 (10.5823)
Bond  time (%) = 0.0615098 (14.4811)
Neigh time (%) = 0 (0)
Comm  time (%) = 0.11173 (26.3043)
Outpt time (%) = 0.00106412 (0.250524)
Other time (%) = 0.205506 (48.3818)

Nlocal:    1000 ave 1033 max 983 min
Histogram: 2 0 0 1 0 0 0 0 0 1
Nghost:    1052 ave 1070 max 1021 min
Histogram: 1 0 0 0 0 0 1 0 1 1
Neighs:    2671 ave 2909 max 2525 min
Histogram: 2 0 0 0 1 0 0 0 0 1

Total # of neighbors = 10684
Ave neighs/atom = 2.671
Ave special neighs/atom = 5.925
Neighbor list builds = 0
Dangerous builds = 0
shell          head -n 2 Temp.txt | tail -n 1 >> Tempfile.txt
shell          head -n 2 Bond.txt | tail -n 1 >> Bondfile.txt
next           myTempStr
next           myBondStr
if "${myBond} <= 0" then "jump imdinput.txt nobonds"
jump           imdinput.txt loop2here

# specifies the run length in timesteps
run            2000
WARNING: Use special bonds = 0,1,1 with bond style fene (../bond_fene.cpp:188)
Memory usage per processor = 5.58517 Mbytes
Step Temp E_pair E_mol TotEng Press 
  668000 1.2847162e-26            0    20.076308    20.076308 1.8848625e-15 
  668100 1.2908684e-26            0    20.076308    20.076308 1.6315958e-15 
  668200 1.3001014e-26            0    20.076308    20.076308 1.5493421e-15 
  668300 1.3023969e-26            0    20.076308    20.076308 9.4707837e-16 
  668400 1.3029454e-26            0    20.076308    20.076308 1.2114982e-15 
  668500 1.3034467e-26            0    20.076308    20.076308 1.3392934e-15 
  668600 1.3023192e-26            0    20.076308    20.076308 1.7421967e-15 
  668700 1.3005611e-26            0    20.076308    20.076308 1.378329e-15 
  668800 1.3012205e-26            0    20.076308    20.076308 1.3615994e-15 
  668900 1.3056078e-26            0    20.076308    20.076308 1.2746987e-15 
  669000 1.3142429e-26            0    20.076308    20.076308 1.1153033e-15 
  669100 1.3212676e-26            0    20.076308    20.076308 8.8248372e-16 
  669200 1.3195671e-26            0    20.076308    20.076308 7.4121197e-16 
  669300 1.3174719e-26            0    20.076308    20.076308 5.5393396e-16 
  669400 1.3127329e-26            0    20.076308    20.076308 6.2689339e-16 
  669500 1.3077621e-26            0    20.076308    20.076308 4.3032118e-16 
  669600 1.3035687e-26            0    20.076308    20.076308 4.5169783e-16 
  669700 1.3023651e-26            0    20.076308    20.076308 7.9465359e-16 
  669800 1.3025645e-26            0    20.076308    20.076308 8.8016017e-16 
  669900 1.3056755e-26            0    20.076308    20.076308 9.8332572e-16 
  670000 1.3054511e-26            0    20.076308    20.076308 8.1091843e-16 
Loop time of 0.425693 on 4 procs (4 MPI x 1 OpenMP) for 2000 steps with 4000 atoms

Pair  time (%) = 0.04484 (10.5334)
Bond  time (%) = 0.0616744 (14.488)
Neigh time (%) = 0 (0)
Comm  time (%) = 0.112211 (26.3595)
Outpt time (%) = 0.00107884 (0.253432)
Other time (%) = 0.205889 (48.3657)

Nlocal:    1000 ave 1033 max 983 min
Histogram: 2 0 0 1 0 0 0 0 0 1
Nghost:    1052 ave 1070 max 1021 min
Histogram: 1 0 0 0 0 0 1 0 1 1
Neighs:    2671 ave 2909 max 2525 min
Histogram: 2 0 0 0 1 0 0 0 0 1

Total # of neighbors = 10684
Ave neighs/atom = 2.671
Ave special neighs/atom = 5.925
Neighbor list builds = 0
Dangerous builds = 0
shell          head -n 2 Temp.txt | tail -n 1 >> Tempfile.txt
shell          head -n 2 Bond.txt | tail -n 1 >> Bondfile.txt
next           myTempStr
next           myBondStr
if "${myBond} <= 0" then "jump imdinput.txt nobonds"
jump           imdinput.txt loop2here

# specifies the run length in timesteps
run            2000
WARNING: Use special bonds = 0,1,1 with bond style fene (../bond_fene.cpp:188)
Memory usage per processor = 5.58517 Mbytes
Step Temp E_pair E_mol TotEng Press 
  670000 1.3054511e-26            0    20.076308    20.076308 8.1091843e-16 
  670100 1.304712e-26            0    20.076308    20.076308 1.0953208e-15 
  670200 1.3003301e-26            0    20.076308    20.076308 1.2974695e-15 
  670300 1.2929733e-26            0    20.076308    20.076308 1.1836156e-15 
  670400 1.2865042e-26            0    20.076308    20.076308 9.8564927e-16 
  670500 1.2866749e-26            0    20.076308    20.076308 9.4707837e-16 
  670600 1.2906395e-26            0    20.076308    20.076308 1.1492271e-15 
  670700 1.2972566e-26            0    20.076308    20.076308 9.4521953e-16 
  670800 1.3022727e-26            0    20.076308    20.076308 9.247723e-16 
  670900 1.3011371e-26            0    20.076308    20.076308 8.4995404e-16 
  671000 1.2993573e-26            0    20.076308    20.076308 9.5079605e-16 
  671100 1.2978365e-26            0    20.076308    20.076308 1.2575044e-15 
  671200 1.298457e-26            0    20.076308    20.076308 1.1241328e-15 
  671300 1.301773e-26            0    20.076308    20.076308 1.2904988e-15 
  671400 1.3012628e-26            0    20.076308    20.076308 1.3852996e-15 
  671500 1.2974462e-26            0    20.076308    20.076308 1.4624414e-15 
  671600 1.2958157e-26            0    20.076308    20.076308 1.2226512e-15 
  671700 1.289797e-26            0    20.076308    20.076308 1.0604675e-15 
  671800 1.2810213e-26            0    20.076308    20.076308 1.3369698e-15 
  671900 1.2769062e-26            0    20.076308    20.076308 1.3620641e-15 
  672000 1.2804062e-26            0    20.076308    20.076308 1.3690348e-15 
Loop time of 0.42542 on 4 procs (4 MPI x 1 OpenMP) for 2000 steps with 4000 atoms

Pair  time (%) = 0.044576 (10.4781)
Bond  time (%) = 0.0614883 (14.4535)
Neigh time (%) = 0 (0)
Comm  time (%) = 0.11238 (26.4163)
Outpt time (%) = 0.00106037 (0.249252)
Other time (%) = 0.205915 (48.4028)

Nlocal:    1000 ave 1033 max 983 min
Histogram: 2 0 0 1 0 0 0 0 0 1
Nghost:    1052 ave 1070 max 1021 min
Histogram: 1 0 0 0 0 0 1 0 1 1
Neighs:    2671 ave 2909 max 2525 min
Histogram: 2 0 0 0 1 0 0 0 0 1

Total # of neighbors = 10684
Ave neighs/atom = 2.671
Ave special neighs/atom = 5.925
Neighbor list builds = 0
Dangerous builds = 0
shell          head -n 2 Temp.txt | tail -n 1 >> Tempfile.txt
shell          head -n 2 Bond.txt | tail -n 1 >> Bondfile.txt
next           myTempStr
next           myBondStr
if "${myBond} <= 0" then "jump imdinput.txt nobonds"
jump           imdinput.txt loop2here

# specifies the run length in timesteps
run            2000
WARNING: Use special bonds = 0,1,1 with bond style fene (../bond_fene.cpp:188)
Memory usage per processor = 5.58517 Mbytes
Step Temp E_pair E_mol TotEng Press 
  672000 1.2804062e-26            0    20.076308    20.076308 1.3690348e-15 
  672100 1.282983e-26            0    20.076308    20.076308 1.2361278e-15 
  672200 1.2877704e-26            0    20.076308    20.076308 1.1297093e-15 
  672300 1.292765e-26            0    20.076308    20.076308 3.8385021e-16 
  672400 1.2960611e-26            0    20.076308    20.076308 5.2651609e-16 
  672500 1.2978523e-26            0    20.076308    20.076308 1.5753659e-16 
  672600 1.2982092e-26            0    20.076308    20.076308 6.0784029e-16 
  672700 1.2982957e-26            0    20.076308    20.076308 5.2140428e-16 
  672800 1.2993066e-26            0    20.076308    20.076308 4.0197389e-16 
  672900 1.3049258e-26            0    20.076308    20.076308  6.51523e-16 
  673000 1.3109409e-26            0    20.076308    20.076308 8.3136565e-16 
  673100 1.3163399e-26            0    20.076308    20.076308 1.0237555e-15 
  673200 1.3181831e-26            0    20.076308    20.076308 1.0367673e-15 
  673300 1.3196623e-26            0    20.076308    20.076308 1.2356631e-15 
  673400 1.3108082e-26            0    20.076308    20.076308 1.2756281e-15 
  673500 1.299713e-26            0    20.076308    20.076308  1.21661e-15 
  673600 1.2956701e-26            0    20.076308    20.076308 1.2361278e-15 
  673700 1.2957554e-26            0    20.076308    20.076308 1.2942165e-15 
  673800 1.2937825e-26            0    20.076308    20.076308 1.2045275e-15 
  673900 1.2963689e-26            0    20.076308    20.076308 1.3681054e-15 
  674000 1.3046696e-26            0    20.076308    20.076308 1.4633708e-15 
Loop time of 0.426711 on 4 procs (4 MPI x 1 OpenMP) for 2000 steps with 4000 atoms

Pair  time (%) = 0.0447335 (10.4833)
Bond  time (%) = 0.0615782 (14.4309)
Neigh time (%) = 0 (0)
Comm  time (%) = 0.112808 (26.4366)
Outpt time (%) = 0.00109029 (0.25551)
Other time (%) = 0.206501 (48.3937)

Nlocal:    1000 ave 1033 max 983 min
Histogram: 2 0 0 1 0 0 0 0 0 1
Nghost:    1052 ave 1070 max 1021 min
Histogram: 1 0 0 0 0 0 1 0 1 1
Neighs:    2671 ave 2909 max 2525 min
Histogram: 2 0 0 0 1 0 0 0 0 1

Total # of neighbors = 10684
Ave neighs/atom = 2.671
Ave special neighs/atom = 5.925
Neighbor list builds = 0
Dangerous builds = 0
shell          head -n 2 Temp.txt | tail -n 1 >> Tempfile.txt
shell          head -n 2 Bond.txt | tail -n 1 >> Bondfile.txt
next           myTempStr
next           myBondStr
if "${myBond} <= 0" then "jump imdinput.txt nobonds"
jump           imdinput.txt loop2here

# specifies the run length in timesteps
run            2000
WARNING: Use special bonds = 0,1,1 with bond style fene (../bond_fene.cpp:188)
Memory usage per processor = 5.58517 Mbytes
Step Temp E_pair E_mol TotEng Press 
  674000 1.3046696e-26            0    20.076308    20.076308 1.4633708e-15 
  674100 1.3107778e-26            0    20.076308    20.076308 1.1464388e-15 
  674200 1.3096614e-26            0    20.076308    20.076308 1.2077805e-15 
  674300 1.3032961e-26            0    20.076308    20.076308 1.2942165e-15 
  674400 1.3003154e-26            0    20.076308    20.076308 1.2403102e-15 
  674500 1.2970823e-26            0    20.076308    20.076308 1.1775744e-15 
  674600 1.2945545e-26            0    20.076308    20.076308 1.0390909e-15 
  674700 1.296812e-26            0    20.076308    20.076308 9.7449624e-16 
  674800 1.3008562e-26            0    20.076308    20.076308 1.0985737e-15 
  674900 1.3063577e-26            0    20.076308    20.076308 1.2338043e-15 
  675000 1.307735e-26            0    20.076308    20.076308 9.2384288e-16 
  675100 1.3078501e-26            0    20.076308    20.076308 9.4568424e-16 
  675200 1.3069269e-26            0    20.076308    20.076308 9.628785e-16 
  675300 1.3010471e-26            0    20.076308    20.076308 1.0390909e-15 
  675400 1.2970874e-26            0    20.076308    20.076308 1.1543389e-15 
  675500 1.2955615e-26            0    20.076308    20.076308 1.032585e-15 
  675600 1.2990285e-26            0    20.076308    20.076308 1.1608448e-15 
  675700 1.3015989e-26            0    20.076308    20.076308 1.2863164e-15 
  675800 1.3040001e-26            0    20.076308    20.076308 1.0660441e-15 
  675900 1.3031669e-26            0    20.076308    20.076308 1.1436506e-15 
  676000 1.3022502e-26            0    20.076308    20.076308 1.0056318e-15 
Loop time of 0.426569 on 4 procs (4 MPI x 1 OpenMP) for 2000 steps with 4000 atoms

Pair  time (%) = 0.044821 (10.5073)
Bond  time (%) = 0.0616801 (14.4596)
Neigh time (%) = 0 (0)
Comm  time (%) = 0.112497 (26.3726)
Outpt time (%) = 0.00109667 (0.25709)
Other time (%) = 0.206474 (48.4035)

Nlocal:    1000 ave 1033 max 983 min
Histogram: 2 0 0 1 0 0 0 0 0 1
Nghost:    1052 ave 1070 max 1021 min
Histogram: 1 0 0 0 0 0 1 0 1 1
Neighs:    2671 ave 2909 max 2525 min
Histogram: 2 0 0 0 1 0 0 0 0 1

Total # of neighbors = 10684
Ave neighs/atom = 2.671
Ave special neighs/atom = 5.925
Neighbor list builds = 0
Dangerous builds = 0
shell          head -n 2 Temp.txt | tail -n 1 >> Tempfile.txt
shell          head -n 2 Bond.txt | tail -n 1 >> Bondfile.txt
next           myTempStr
next           myBondStr
if "${myBond} <= 0" then "jump imdinput.txt nobonds"
jump           imdinput.txt loop2here

# specifies the run length in timesteps
run            2000
WARNING: Use special bonds = 0,1,1 with bond style fene (../bond_fene.cpp:188)
Memory usage per processor = 5.58517 Mbytes
Step Temp E_pair E_mol TotEng Press 
  676000 1.3022502e-26            0    20.076308    20.076308 1.0056318e-15 
  676100 1.3040685e-26            0    20.076308    20.076308 1.1836156e-15 
  676200 1.3067465e-26            0    20.076308    20.076308 1.0414144e-15 
  676300 1.3121425e-26            0    20.076308    20.076308 1.3220991e-15 
  676400 1.3093198e-26            0    20.076308    20.076308 9.6101966e-16 
  676500 1.3088034e-26            0    20.076308    20.076308 1.1840803e-15 
  676600 1.3118958e-26            0    20.076308    20.076308 1.1482977e-15 
  676700 1.3090102e-26            0    20.076308    20.076308 1.5642128e-15 
  676800 1.303235e-26            0    20.076308    20.076308 1.4991535e-15 
  676900 1.3030701e-26            0    20.076308    20.076308 1.1994157e-15 
  677000 1.3029452e-26            0    20.076308    20.076308 9.6613147e-16 
  677100 1.3058431e-26            0    20.076308    20.076308 1.0172495e-15 
  677200 1.3092451e-26            0    20.076308    20.076308 9.7914334e-16 
  677300 1.3111446e-26            0    20.076308    20.076308 7.4074726e-16 
  677400 1.3092833e-26            0    20.076308    20.076308 3.6712066e-16 
  677500 1.3037534e-26            0    20.076308    20.076308 3.9035615e-16 
  677600 1.2981405e-26            0    20.076308    20.076308 6.5756423e-16 
  677700 1.2915585e-26            0    20.076308    20.076308 5.4928687e-16 
  677800 1.287524e-26            0    20.076308    20.076308 5.9529313e-16 
  677900 1.2871092e-26            0    20.076308    20.076308 8.2578914e-16 
  678000 1.2885082e-26            0    20.076308    20.076308 9.2663114e-16 
Loop time of 0.424919 on 4 procs (4 MPI x 1 OpenMP) for 2000 steps with 4000 atoms

Pair  time (%) = 0.0446594 (10.5101)
Bond  time (%) = 0.0614575 (14.4634)
Neigh time (%) = 0 (0)
Comm  time (%) = 0.111947 (26.3455)
Outpt time (%) = 0.00110126 (0.259169)
Other time (%) = 0.205753 (48.4219)

Nlocal:    1000 ave 1033 max 983 min
Histogram: 2 0 0 1 0 0 0 0 0 1
Nghost:    1052 ave 1070 max 1021 min
Histogram: 1 0 0 0 0 0 1 0 1 1
Neighs:    2671 ave 2909 max 2525 min
Histogram: 2 0 0 0 1 0 0 0 0 1

Total # of neighbors = 10684
Ave neighs/atom = 2.671
Ave special neighs/atom = 5.925
Neighbor list builds = 0
Dangerous builds = 0
shell          head -n 2 Temp.txt | tail -n 1 >> Tempfile.txt
shell          head -n 2 Bond.txt | tail -n 1 >> Bondfile.txt
next           myTempStr
next           myBondStr
if "${myBond} <= 0" then "jump imdinput.txt nobonds"
jump           imdinput.txt loop2here

# specifies the run length in timesteps
run            2000
WARNING: Use special bonds = 0,1,1 with bond style fene (../bond_fene.cpp:188)
Memory usage per processor = 5.58517 Mbytes
Step Temp E_pair E_mol TotEng Press 
  678000 1.2885082e-26            0    20.076308    20.076308 9.2663114e-16 
  678100 1.2876663e-26            0    20.076308    20.076308 1.1245975e-15 
  678200 1.2855834e-26            0    20.076308    20.076308 9.7821392e-16 
  678300 1.286753e-26            0    20.076308    20.076308 9.6427263e-16 
  678400 1.2893629e-26            0    20.076308    20.076308 1.2993283e-15 
  678500 1.2878575e-26            0    20.076308    20.076308 1.1259916e-15 
  678600 1.2872703e-26            0    20.076308    20.076308 1.3290697e-15 
  678700 1.2905503e-26            0    20.076308    20.076308 1.3230285e-15 
  678800 1.2934793e-26            0    20.076308    20.076308 1.2937518e-15 
  678900 1.2995486e-26            0    20.076308    20.076308 1.2268336e-15 
  679000 1.3066309e-26            0    20.076308    20.076308 1.285387e-15 
  679100 1.3101428e-26            0    20.076308    20.076308 1.1287799e-15 
  679200 1.3078066e-26            0    20.076308    20.076308 1.1650272e-15 
  679300 1.3060732e-26            0    20.076308    20.076308   1.4327e-15 
  679400 1.3051475e-26            0    20.076308    20.076308 1.573507e-15 
  679500 1.3038112e-26            0    20.076308    20.076308 1.2867812e-15 
  679600 1.3036448e-26            0    20.076308    20.076308 1.0906737e-15 
  679700 1.3034357e-26            0    20.076308    20.076308 8.0720075e-16 
  679800 1.3026228e-26            0    20.076308    20.076308 7.2680597e-16 
  679900 1.3004202e-26            0    20.076308    20.076308 1.259828e-15 
  680000  1.29642e-26            0    20.076308    20.076308 1.2960754e-15 
Loop time of 0.426391 on 4 procs (4 MPI x 1 OpenMP) for 2000 steps with 4000 atoms

Pair  time (%) = 0.0449907 (10.5515)
Bond  time (%) = 0.0618158 (14.4975)
Neigh time (%) = 0 (0)
Comm  time (%) = 0.112059 (26.2807)
Outpt time (%) = 0.00110829 (0.259923)
Other time (%) = 0.206418 (48.4104)

Nlocal:    1000 ave 1033 max 983 min
Histogram: 2 0 0 1 0 0 0 0 0 1
Nghost:    1052 ave 1070 max 1021 min
Histogram: 1 0 0 0 0 0 1 0 1 1
Neighs:    2671 ave 2909 max 2525 min
Histogram: 2 0 0 0 1 0 0 0 0 1

Total # of neighbors = 10684
Ave neighs/atom = 2.671
Ave special neighs/atom = 5.925
Neighbor list builds = 0
Dangerous builds = 0
shell          head -n 2 Temp.txt | tail -n 1 >> Tempfile.txt
shell          head -n 2 Bond.txt | tail -n 1 >> Bondfile.txt
next           myTempStr
next           myBondStr
if "${myBond} <= 0" then "jump imdinput.txt nobonds"
jump           imdinput.txt loop2here

# specifies the run length in timesteps
run            2000
WARNING: Use special bonds = 0,1,1 with bond style fene (../bond_fene.cpp:188)
Memory usage per processor = 5.58517 Mbytes
Step Temp E_pair E_mol TotEng Press 
  680000  1.29642e-26            0    20.076308    20.076308 1.2960754e-15 
  680100  0.075039274 6.4518813e-05    20.100256    20.212852 -0.057017353 
  680200   0.14007686 0.0011767813    20.122599    20.333839 -0.067577007 
  680300   0.19250439 0.0054086442    20.139286    20.433379   0.09396138 
  680400   0.23208254  0.013860001    20.160657    20.522554  0.003269505 
  680500   0.26106524  0.024546931    20.175795    20.591842  0.094148224 
  680600   0.28637961  0.035591439    20.188285    20.653339   0.12559363 
  680700   0.30998024  0.046340353    20.202281    20.713475   0.19423829 
  680800   0.33339437  0.055034871    20.213802    20.768803   0.35876203 
  680900    0.3539076  0.060998156    20.228292    20.820019   0.15463252 
  681000   0.37106051  0.065710045    20.239464    20.861626   0.11215449 
  681100   0.38552212   0.06988933    20.247884    20.895911   0.29982066 
  681200   0.39902561  0.074277742    20.251508    20.924174   0.32626388 
  681300   0.40848626  0.078721793    20.260564    20.951862    0.2435914 
  681400   0.42619491  0.082941541    20.260566     20.98264    0.3544756 
  681500   0.43307474  0.088434573    20.273668    21.011552   0.09547148 
  681600   0.43757658  0.092855274    20.281403    21.030459   0.35239602 
  681700   0.44752608   0.09578068    20.284006    21.050908   0.56830915 
  681800   0.45241673  0.095864922     20.28873     21.06305   0.26924391 
  681900   0.45593297  0.094610004    20.290488    21.068827    0.1485139 
  682000   0.45696843  0.093915795    20.298135    21.077332   0.15606608 
Loop time of 0.52675 on 4 procs (4 MPI x 1 OpenMP) for 2000 steps with 4000 atoms

Pair  time (%) = 0.113054 (21.4625)
Bond  time (%) = 0.0610147 (11.5832)
Neigh time (%) = 0.0169674 (3.22115)
Comm  time (%) = 0.129939 (24.6681)
Outpt time (%) = 0.00111061 (0.210843)
Other time (%) = 0.204664 (38.8541)

Nlocal:    1000 ave 1032 max 985 min
Histogram: 1 2 0 0 0 0 0 0 0 1
Nghost:    1054 ave 1060 max 1049 min
Histogram: 1 0 1 0 0 1 0 0 0 1
Neighs:    2791.25 ave 3039 max 2638 min
Histogram: 2 0 0 0 1 0 0 0 0 1

Total # of neighbors = 11165
Ave neighs/atom = 2.79125
Ave special neighs/atom = 5.925
Neighbor list builds = 22
Dangerous builds = 0
shell          head -n 2 Temp.txt | tail -n 1 >> Tempfile.txt
shell          head -n 2 Bond.txt | tail -n 1 >> Bondfile.txt
next           myTempStr
next           myBondStr
if "${myBond} <= 0" then "jump imdinput.txt nobonds"
jump           imdinput.txt loop2here

# specifies the run length in timesteps
run            2000
WARNING: Use special bonds = 0,1,1 with bond style fene (../bond_fene.cpp:188)
Memory usage per processor = 5.58541 Mbytes
Step Temp E_pair E_mol TotEng Press 
  682000   0.45696843  0.093915795    20.298135    21.077332   0.15606608 
  682100   0.46930314  0.094600353     20.29139     21.08977   0.22035487 
  682200   0.47934212  0.093485356     20.29485    21.107169   0.27414834 
  682300   0.46787486  0.095427236    20.301616     21.09868    0.2266355 
  682400    0.4675001  0.096698297    20.300124    21.097897   0.25006038 
  682500    0.4693391    0.0977825    20.304572    21.106187   0.24290394 
  682600   0.46379387  0.097519955    20.308801    21.101837   0.27293692 
  682700   0.47194907  0.096145845    20.302133    21.106026  0.045405408 
  682800    0.4756268  0.094668347    20.308188    21.116118    0.4509372 
  682900   0.48541193  0.094865527    20.305113    21.127915   0.37539866 
  683000   0.48415304  0.096708938    20.309962    21.132719   0.37469241 
  683100   0.48454154  0.099181993    20.315113    21.140925   0.25256989 
  683200   0.49140571   0.10033257    20.310091    21.147348   0.22757778 
  683300   0.49270471   0.10276751    20.310203    21.151843   0.19907473 
  683400   0.49194871   0.10276929    20.320116    21.160624   0.21356498 
  683500   0.49290223    0.1037388     20.31486    21.157767    0.3219755 
  683600   0.49066694   0.10457728    20.316373    21.156767    0.2308127 
  683700   0.48394779   0.10471969    20.323142    21.153602   0.27784987 
  683800   0.49343418   0.10286877     20.31916    21.161995    0.1347547 
  683900   0.48196393   0.10128171    20.316831    21.140878   0.35751545 
  684000   0.48433828  0.099166557    20.322415    21.147907   0.25915123 
Loop time of 0.555804 on 4 procs (4 MPI x 1 OpenMP) for 2000 steps with 4000 atoms

Pair  time (%) = 0.139113 (25.0291)
Bond  time (%) = 0.0604962 (10.8844)
Neigh time (%) = 0.0214676 (3.86245)
Comm  time (%) = 0.131817 (23.7165)
Outpt time (%) = 0.00111479 (0.200572)
Other time (%) = 0.201795 (36.3069)

Nlocal:    1000 ave 1057 max 976 min
Histogram: 2 1 0 0 0 0 0 0 0 1
Nghost:    1055.75 ave 1094 max 1026 min
Histogram: 1 0 1 0 0 1 0 0 0 1
Neighs:    2824.75 ave 3159 max 2681 min
Histogram: 2 1 0 0 0 0 0 0 0 1

Total # of neighbors = 11299
Ave neighs/atom = 2.82475
Ave special neighs/atom = 5.925
Neighbor list builds = 28
Dangerous builds = 0
shell          head -n 2 Temp.txt | tail -n 1 >> Tempfile.txt
shell          head -n 2 Bond.txt | tail -n 1 >> Bondfile.txt
next           myTempStr
next           myBondStr
if "${myBond} <= 0" then "jump imdinput.txt nobonds"
jump           imdinput.txt loop2here

# specifies the run length in timesteps
run            2000
WARNING: Use special bonds = 0,1,1 with bond style fene (../bond_fene.cpp:188)
Memory usage per processor = 5.59054 Mbytes
Step Temp E_pair E_mol TotEng Press 
  684000   0.48433828  0.099166557    20.322415    21.147907   0.25915123 
  684100   0.49830549  0.097405227    20.316611    21.161287   0.24675882 
  684200   0.49951624  0.097254259    20.320903    21.167245   0.22157985 
  684300   0.49556872   0.09834373    20.324624    21.166135   0.28722855 
  684400   0.50321643  0.099426349    20.321449    21.175511   0.34086973 
  684500   0.49740422   0.10005056    20.324931    21.170901   0.05556813 
  684600   0.49594765  0.098916864    20.320594    21.163247   0.26307071 
  684700   0.49822696  0.097544469    20.320183    21.164881   0.14950635 
  684800    0.4940746  0.095796009     20.32089    21.157613   0.35067432 
  684900   0.49090616  0.096179409    20.330685    21.163039   0.24044301 
  685000   0.49109373  0.097396066    20.328209    21.162061   0.21582277 
  685100   0.49235729   0.10092022    20.326304    21.165575   0.36311001 
  685200   0.49640684     0.102732    20.317991    21.165147   0.36010235 
  685300   0.49349516    0.1028887    20.330159    21.173106   0.23464746 
  685400   0.49022345   0.10225387    20.329992    21.167397   0.29169774 
  685500   0.48221579   0.10365995    20.330046    21.156849   0.19801246 
  685600   0.48440359   0.10383089    20.330075     21.16033   0.29408571 
  685700   0.49064076   0.10467681    20.329313    21.169767   0.20277298 
  685800   0.49273734   0.10173443    20.335624    21.176279 -0.0093896081 
  685900   0.49495607  0.098048714    20.332466    21.172763   0.21721841 
  686000   0.50016395  0.095706027    20.327909    21.173674   0.35263754 
Loop time of 0.558964 on 4 procs (4 MPI x 1 OpenMP) for 2000 steps with 4000 atoms

Pair  time (%) = 0.139097 (24.8847)
Bond  time (%) = 0.0608819 (10.8919)
Neigh time (%) = 0.0222667 (3.98358)
Comm  time (%) = 0.133603 (23.9019)
Outpt time (%) = 0.00114751 (0.205292)
Other time (%) = 0.201968 (36.1326)

Nlocal:    1000 ave 1040 max 973 min
Histogram: 1 0 1 0 1 0 0 0 0 1
Nghost:    1075.25 ave 1098 max 1030 min
Histogram: 1 0 0 0 0 0 0 1 1 1
Neighs:    2813 ave 2951 max 2734 min
Histogram: 1 1 0 1 0 0 0 0 0 1

Total # of neighbors = 11252
Ave neighs/atom = 2.813
Ave special neighs/atom = 5.925
Neighbor list builds = 29
Dangerous builds = 0
shell          head -n 2 Temp.txt | tail -n 1 >> Tempfile.txt
shell          head -n 2 Bond.txt | tail -n 1 >> Bondfile.txt
next           myTempStr
next           myBondStr
if "${myBond} <= 0" then "jump imdinput.txt nobonds"
jump           imdinput.txt loop2here

# specifies the run length in timesteps
run            2000
WARNING: Use special bonds = 0,1,1 with bond style fene (../bond_fene.cpp:188)
Memory usage per processor = 5.58712 Mbytes
Step Temp E_pair E_mol TotEng Press 
  686000   0.50016395  0.095706027    20.327909    21.173674   0.35263754 
  686100   0.49822849  0.095181568    20.321238    21.163575   0.42427585 
  686200   0.49480649  0.098043008    20.323061    21.163128   0.13291714 
  686300   0.48650288   0.10016562    20.333458    21.163195   0.15959231 
  686400   0.49036181   0.10075579    20.321815    21.157929   0.34884423 
  686500   0.49826136   0.10081628    20.325561    21.173583   0.19935437 
  686600   0.50409448    0.1007282    20.323982    21.180663   0.24063968 
  686700   0.49657847   0.10268797    20.333668    21.181037   0.10639374 
  686800   0.50123138    0.1018447    20.320226    21.173729   0.39384067 
  686900   0.50172053   0.10137969    20.324872    21.178644   0.21326252 
  687000   0.49866795   0.10154315    20.328597    21.177955   0.37590501 
  687100   0.50112253   0.10238258    20.327996    21.181874   0.23982042 
  687200   0.50433787    0.1026709    20.325564    21.184552   0.44663629 
  687300   0.49581329   0.10411977    20.341078    21.188731   0.14125537 
  687400   0.49023472   0.10555789    20.332767    21.173493   0.21369078 
  687500   0.49407946   0.10517611    20.328575    21.174685   0.17713963 
  687600   0.49325802   0.10373596    20.330378    21.173816   0.22860859 
  687700   0.49459677   0.10115404    20.333359    21.176223   0.45417108 
  687800   0.50189629  0.098118113    20.326853    21.177628   0.26584253 
  687900   0.49124499  0.096162125    20.339241    21.172086   0.25891487 
  688000   0.49943704  0.093606693    20.329064    21.171639   0.13782245 
Loop time of 0.559553 on 4 procs (4 MPI x 1 OpenMP) for 2000 steps with 4000 atoms

Pair  time (%) = 0.13871 (24.7895)
Bond  time (%) = 0.0614782 (10.987)
Neigh time (%) = 0.0222077 (3.96883)
Comm  time (%) = 0.133824 (23.9162)
Outpt time (%) = 0.00120848 (0.215973)
Other time (%) = 0.202124 (36.1225)

Nlocal:    1000 ave 1039 max 958 min
Histogram: 1 0 0 0 1 0 1 0 0 1
Nghost:    1092 ave 1128 max 1045 min
Histogram: 1 0 0 0 0 1 1 0 0 1
Neighs:    2832.5 ave 3029 max 2676 min
Histogram: 1 1 0 0 0 1 0 0 0 1

Total # of neighbors = 11330
Ave neighs/atom = 2.8325
Ave special neighs/atom = 5.925
Neighbor list builds = 29
Dangerous builds = 0
shell          head -n 2 Temp.txt | tail -n 1 >> Tempfile.txt
shell          head -n 2 Bond.txt | tail -n 1 >> Bondfile.txt
next           myTempStr
next           myBondStr
if "${myBond} <= 0" then "jump imdinput.txt nobonds"
jump           imdinput.txt loop2here

# specifies the run length in timesteps
run            2000
WARNING: Use special bonds = 0,1,1 with bond style fene (../bond_fene.cpp:188)
Memory usage per processor = 5.58736 Mbytes
Step Temp E_pair E_mol TotEng Press 
  688000   0.49943704  0.093606693    20.329064    21.171639   0.13782245 
  688100   0.49476363  0.093269017    20.337193    21.172422    0.1737404 
  688200    0.4972056  0.093414557    20.335163      21.1742   0.41160392 
  688300   0.49732486  0.095393174    20.326847     21.16804   0.23867469 
  688400   0.50022365  0.097160703    20.329269    21.176578   0.20450149 
  688500   0.49016195  0.099016877    20.333543    21.167619   0.20481854 
  688600    0.4908548   0.10097266    20.329323    21.166394   0.30966104 
  688700   0.48710025   0.10263894    20.322574    21.155681   0.28375301 
  688800   0.48698296   0.10403308    20.331236    21.165561   0.23258691 
  688900   0.49506633    0.1011735    20.325802     21.16939    0.1172546 
  689000   0.50040924  0.097193892    20.326195    21.173815   0.26003241 
  689100   0.49513031  0.094440613    20.330792    21.167743   0.23625174 
  689200   0.49644444  0.095208467    20.328722     21.16841   0.33903185 
  689300   0.48844585  0.095664657    20.329334    21.157485   0.14262222 
  689400   0.49001606  0.096059889     20.32485     21.15575   0.18889458 
  689500   0.48783832  0.097778573    20.324014    21.153367   0.29645231 
  689600   0.48756556   0.10033848    20.325757    21.157261    0.4145048 
  689700   0.48840158   0.10072356    20.335468    21.168611   0.25217111 
  689800   0.49241543  0.098582043      20.3324     21.16942   0.12955921 
  689900   0.50070236  0.096026904    20.326634    21.173527   0.27241391 
  690000    0.4936641   0.09481956    20.329781    21.164912   0.29761763 
Loop time of 0.560403 on 4 procs (4 MPI x 1 OpenMP) for 2000 steps with 4000 atoms

Pair  time (%) = 0.141522 (25.2537)
Bond  time (%) = 0.0619006 (11.0457)
Neigh time (%) = 0.021504 (3.83725)
Comm  time (%) = 0.132993 (23.7317)
Outpt time (%) = 0.00116926 (0.208647)
Other time (%) = 0.201314 (35.923)

Nlocal:    1000 ave 1022 max 978 min
Histogram: 1 0 1 0 0 0 0 1 0 1
Nghost:    1093.25 ave 1105 max 1083 min
Histogram: 1 0 0 1 0 1 0 0 0 1
Neighs:    2860.25 ave 3010 max 2737 min
Histogram: 1 1 0 0 0 0 1 0 0 1

Total # of neighbors = 11441
Ave neighs/atom = 2.86025
Ave special neighs/atom = 5.925
Neighbor list builds = 28
Dangerous builds = 0
shell          head -n 2 Temp.txt | tail -n 1 >> Tempfile.txt
shell          head -n 2 Bond.txt | tail -n 1 >> Bondfile.txt
next           myTempStr
next           myBondStr
if "${myBond} <= 0" then "jump imdinput.txt nobonds"
jump           imdinput.txt loop2here

# specifies the run length in timesteps
run            2000
WARNING: Use special bonds = 0,1,1 with bond style fene (../bond_fene.cpp:188)
Memory usage per processor = 5.58175 Mbytes
Step Temp E_pair E_mol TotEng Press 
  690000    0.4936641   0.09481956    20.329781    21.164912   0.29761763 
  690100    0.4898258  0.093193645     20.33123    21.158979   0.24284654 
  690200   0.49320048  0.092577595    20.329379    21.161572   0.39132377 
  690300   0.49614009  0.094364298     20.33479    21.173179   0.16881116 
  690400   0.49024171  0.095827372    20.332967    21.163973   0.21044841 
  690500   0.48924762  0.096799587    20.330908    21.161395   0.32328862 
  690600   0.48793451  0.097807348    20.337988    21.167514   0.29064105 
  690700   0.48661531  0.096715173    20.338182    21.164638   0.23402254 
  690800   0.49441939  0.097484487    20.332939    21.171867   0.22470031 
  690900    0.4959248  0.097777429     20.33741    21.178889   0.10377922 
  691000   0.49130144  0.097391799    20.336224    21.170383   0.31320212 
  691100   0.49681273  0.096241553    20.336616     21.17789   0.37151326 
  691200   0.50006012  0.095554234    20.327339    21.172796   0.24111167 
  691300   0.50296615  0.095678973    20.326913    21.176853   0.21191936 
  691400   0.50564406  0.094941981     20.32826    21.181478   0.13337223 
  691500   0.49842381  0.094950809    20.337599    21.179998   0.24509718 
  691600   0.50153143  0.098226237    20.324389    21.174724    0.2963697 
  691700   0.49343852  0.099036273    20.330735    21.169744    0.3125048 
  691800   0.49379149  0.099409406    20.332528     21.17244   0.20539233 
  691900   0.49143355   0.09837062    20.327714    21.163051   0.14114866 
  692000    0.4913847  0.096280204    20.328656    21.161829   0.32516853 
Loop time of 0.556389 on 4 procs (4 MPI x 1 OpenMP) for 2000 steps with 4000 atoms

Pair  time (%) = 0.140344 (25.2241)
Bond  time (%) = 0.0619597 (11.136)
Neigh time (%) = 0.021579 (3.8784)
Comm  time (%) = 0.131132 (23.5684)
Outpt time (%) = 0.00114489 (0.205771)
Other time (%) = 0.200229 (35.9872)

Nlocal:    1000 ave 1045 max 961 min
Histogram: 1 0 0 1 1 0 0 0 0 1
Nghost:    1055.75 ave 1080 max 1038 min
Histogram: 1 0 1 0 1 0 0 0 0 1
Neighs:    2830 ave 3141 max 2561 min
Histogram: 1 0 0 1 1 0 0 0 0 1

Total # of neighbors = 11320
Ave neighs/atom = 2.83
Ave special neighs/atom = 5.925
Neighbor list builds = 28
Dangerous builds = 0
shell          head -n 2 Temp.txt | tail -n 1 >> Tempfile.txt
shell          head -n 2 Bond.txt | tail -n 1 >> Bondfile.txt
next           myTempStr
next           myBondStr
if "${myBond} <= 0" then "jump imdinput.txt nobonds"
jump           imdinput.txt loop2here

# specifies the run length in timesteps
run            2000
WARNING: Use special bonds = 0,1,1 with bond style fene (../bond_fene.cpp:188)
Memory usage per processor = 5.5881 Mbytes
Step Temp E_pair E_mol TotEng Press 
  692000    0.4913847  0.096280204    20.328656    21.161829   0.32516853 
  692100   0.49194641  0.095893217    20.329031     21.16266   0.27377002 
  692200   0.49238742  0.095059384    20.333045    21.166501   0.34093694 
  692300   0.49452664  0.096848117    20.325816    21.164268   0.29185063 
  692400   0.48541935   0.09803337     20.33511     21.16109   0.21781304 
  692500   0.49474435  0.096699348    20.327772    21.166403   0.14632343 
  692600   0.50291071  0.096181084    20.318913    21.169271   0.28199922 
  692700   0.49170316  0.098030067    20.334593    21.169993   0.17326883 
  692800    0.4978058  0.098628069    20.323698    21.168848   0.41303199 
  692900   0.49734528   0.09955881    20.332753    21.178144   0.11793705 
  693000   0.50857167  0.099106667    20.325844    21.187617   0.22732504 
  693100   0.49424661  0.098791965    20.340186    21.180162   0.39042476 
  693200   0.50013295  0.097371461    20.328464    21.175847   0.14785112 
  693300   0.49718278  0.095298531    20.328112    21.168999   0.23116369 
  693400   0.50035523  0.095707163    20.323123    21.169175   0.34688648 
  693500   0.49740019  0.096788991    20.327503    21.170205   0.54013368 
  693600   0.49505038   0.09995557    20.326396    21.168742   0.30405185 
  693700   0.49461395   0.10023827    20.334846     21.17682  0.033916098 
  693800   0.49560198   0.09767545     20.33579    21.176683   0.27389254 
  693900   0.49844502  0.096040108    20.328895    21.172415   0.29578429 
  694000   0.49133468  0.095182468    20.333367    21.165367   0.13296137 
Loop time of 0.565185 on 4 procs (4 MPI x 1 OpenMP) for 2000 steps with 4000 atoms

Pair  time (%) = 0.142245 (25.1678)
Bond  time (%) = 0.0620149 (10.9725)
Neigh time (%) = 0.0226768 (4.01228)
Comm  time (%) = 0.134821 (23.8542)
Outpt time (%) = 0.00121576 (0.215108)
Other time (%) = 0.202212 (35.7781)

Nlocal:    1000 ave 1051 max 971 min
Histogram: 1 0 2 0 0 0 0 0 0 1
Nghost:    1073 ave 1109 max 1033 min
Histogram: 1 0 0 0 1 0 1 0 0 1
Neighs:    2767.5 ave 3132 max 2560 min
Histogram: 1 1 0 1 0 0 0 0 0 1

Total # of neighbors = 11070
Ave neighs/atom = 2.7675
Ave special neighs/atom = 5.925
Neighbor list builds = 29
Dangerous builds = 0
shell          head -n 2 Temp.txt | tail -n 1 >> Tempfile.txt
shell          head -n 2 Bond.txt | tail -n 1 >> Bondfile.txt
next           myTempStr
next           myBondStr
if "${myBond} <= 0" then "jump imdinput.txt nobonds"
jump           imdinput.txt loop2here

# specifies the run length in timesteps
run            2000
WARNING: Use special bonds = 0,1,1 with bond style fene (../bond_fene.cpp:188)
Memory usage per processor = 5.58981 Mbytes
Step Temp E_pair E_mol TotEng Press 
  694000   0.49133468  0.095182468    20.333367    21.165367   0.13296137 
  694100    0.4894333  0.094197517    20.329694    21.157858   0.20982361 
  694200   0.49461094  0.094120183    20.330177    21.166028   0.25425379 
  694300   0.50433696   0.09439506    20.313917    21.164629   0.33212806 
  694400   0.50258255  0.095084607    20.321967    21.170737   0.21874482 
  694500   0.50527934  0.094492108    20.321287    21.173509   0.31948375 
  694600   0.50247422  0.095631793    20.326803    21.175958  0.074766214 
  694700     0.504871  0.096834168    20.321841    21.175792   0.23156346 
  694800   0.50609843   0.09938499    20.331409    21.189752   0.32854744 
  694900   0.50920804   0.10429905    20.325477    21.193397   0.20966654 
  695000    0.4987128   0.10594269    20.336425     21.19025   0.20080345 
  695100   0.50575803   0.10409311     20.32798     21.19052   0.27932588 
  695200   0.50051925   0.10089502    20.335034     21.18652   0.26788855 
  695300   0.50812242  0.099275787    20.333913    21.195182   0.23672404 
  695400   0.50722614  0.097732899    20.324907    21.183289   0.27223898 
  695500   0.49732332  0.097804201    20.330229    21.173832   0.22978628 
  695600   0.49886324   0.09880922    20.332815    21.179732   0.21715804 
  695700   0.49909717   0.09937723    20.336808    21.184644   0.30102992 
  695800   0.49988155  0.099022511    20.336242    21.184899   0.25109708 
  695900   0.50560539  0.098790627    20.335133    21.192142    0.1829647 
  696000   0.49464342  0.098679684    20.344457    21.184916   0.13291748 
Loop time of 0.56684 on 4 procs (4 MPI x 1 OpenMP) for 2000 steps with 4000 atoms

Pair  time (%) = 0.140254 (24.7431)
Bond  time (%) = 0.0613463 (10.8225)
Neigh time (%) = 0.0220554 (3.89094)
Comm  time (%) = 0.138319 (24.4017)
Outpt time (%) = 0.00116402 (0.205352)
Other time (%) = 0.203702 (35.9364)

Nlocal:    1000 ave 1055 max 976 min
Histogram: 2 1 0 0 0 0 0 0 0 1
Nghost:    1082.5 ave 1115 max 1065 min
Histogram: 2 0 0 1 0 0 0 0 0 1
Neighs:    2770.5 ave 3188 max 2552 min
Histogram: 1 1 1 0 0 0 0 0 0 1

Total # of neighbors = 11082
Ave neighs/atom = 2.7705
Ave special neighs/atom = 5.925
Neighbor list builds = 28
Dangerous builds = 0
shell          head -n 2 Temp.txt | tail -n 1 >> Tempfile.txt
shell          head -n 2 Bond.txt | tail -n 1 >> Bondfile.txt
next           myTempStr
next           myBondStr
if "${myBond} <= 0" then "jump imdinput.txt nobonds"
jump           imdinput.txt loop2here

# specifies the run length in timesteps
run            2000
WARNING: Use special bonds = 0,1,1 with bond style fene (../bond_fene.cpp:188)
Memory usage per processor = 5.59127 Mbytes
Step Temp E_pair E_mol TotEng Press 
  696000   0.49464342  0.098679684    20.344457    21.184916   0.13291748 
  696100   0.50059311   0.10002166    20.338757     21.18948   0.15400378 
  696200   0.51441085   0.10190131    20.325211    21.198536   0.47252613 
  696300   0.50470576   0.10497805    20.330955    21.192803   0.40110507 
  696400   0.50284416   0.10623916    20.341181    21.201498   0.24337021 
  696500   0.50426826   0.10577661    20.344883    21.206873   0.33648805 
  696600   0.49995012   0.10288266    20.343456    21.196077   0.21077829 
  696700    0.4977595  0.099080671    20.341794    21.187327     0.314908 
  696800   0.50685061  0.095400042    20.333913    21.189399   0.29186194 
  696900   0.50600637  0.094024352    20.338783    21.191627   0.32086851 
  697000   0.51094068  0.094448182    20.337288    21.197956   0.33893649 
  697100   0.51000424  0.095804554     20.33927     21.19989   0.30686085 
  697200   0.50611785  0.097982522    20.332912    21.189881   0.16812984 
  697300   0.50951446  0.097291187    20.335633    21.197005   0.22623532 
  697400   0.50728304  0.097519147    20.328513    21.186767   0.22142724 
  697500    0.5038623  0.098033608    20.336483    21.190121   0.23297644 
  697600   0.50512245  0.098879145    20.329348    21.185721   0.35245719 
  697700   0.50184374   0.09799984     20.33145    21.182027    0.1009268 
  697800   0.50494756  0.095473711     20.33173    21.184436   0.38653219 
  697900   0.49807913  0.094115001    20.334372    21.175419   0.35378375 
  698000   0.48711549  0.093496188    20.335572    21.159558   0.29610859 
Loop time of 0.580314 on 4 procs (4 MPI x 1 OpenMP) for 2000 steps with 4000 atoms

Pair  time (%) = 0.143678 (24.7588)
Bond  time (%) = 0.061926 (10.6711)
Neigh time (%) = 0.0225177 (3.88026)
Comm  time (%) = 0.145034 (24.9923)
Outpt time (%) = 0.00105631 (0.182025)
Other time (%) = 0.206101 (35.5155)

Nlocal:    1000 ave 1029 max 969 min
Histogram: 1 0 0 0 0 2 0 0 0 1
Nghost:    1084.25 ave 1113 max 1060 min
Histogram: 1 0 0 1 1 0 0 0 0 1
Neighs:    2793.5 ave 2925 max 2677 min
Histogram: 1 0 0 1 0 1 0 0 0 1

Total # of neighbors = 11174
Ave neighs/atom = 2.7935
Ave special neighs/atom = 5.925
Neighbor list builds = 28
Dangerous builds = 0
shell          head -n 2 Temp.txt | tail -n 1 >> Tempfile.txt
shell          head -n 2 Bond.txt | tail -n 1 >> Bondfile.txt
next           myTempStr
next           myBondStr
if "${myBond} <= 0" then "jump imdinput.txt nobonds"
jump           imdinput.txt loop2here

# specifies the run length in timesteps
run            2000
WARNING: Use special bonds = 0,1,1 with bond style fene (../bond_fene.cpp:188)
Memory usage per processor = 5.58419 Mbytes
Step Temp E_pair E_mol TotEng Press 
  698000   0.48711549  0.093496188    20.335572    21.159558   0.29610859 
  698100   0.48810749  0.092633277    20.327811    21.152423     0.324538 
  698200   0.48833697  0.093688862    20.326352    21.152363   0.11759145 
  698300   0.48681767  0.093401749    20.326603    21.150048   0.14695616 
  698400   0.48640741  0.094377888    20.330054     21.15386   0.39536392 
  698500   0.49053367   0.09303173    20.325683    21.154331   0.20976965 
  698600   0.48754711  0.093788593    20.329476    21.154402   0.18029353 
  698700   0.48661344  0.093517184    20.327645      21.1509   0.30930212 
  698800   0.48964272  0.093445604    20.326829    21.154555   0.21342723 
  698900   0.48435188  0.093839311    20.327148    21.147334   0.17545894 
  699000   0.48650686  0.093733534    20.323762    21.147073   0.17872884 
  699100   0.49905244  0.093754326    20.320145    21.162291   0.43248366 
  699200    0.4992868  0.095452837    20.325243    21.169439   0.27092512 
  699300   0.50319633  0.096348261    20.328628    21.179582   0.15325826 
  699400   0.50506609  0.097260422    20.322533    21.177203   0.22441254 
  699500   0.50506904  0.098479893    20.324137    21.180031   0.27498569 
  699600   0.49846497  0.099294728    20.335399    21.182204   0.11463582 
  699700   0.50090674  0.099882173    20.328917    21.179971   0.21487085 
  699800   0.50439251   0.10062103     20.32989    21.186911   0.23075479 
  699900   0.50303378   0.10057162    20.333458    21.188391   0.27157254 
  700000   0.49917023  0.098935377    20.333599    21.181102   0.22955649 
Loop time of 0.585732 on 4 procs (4 MPI x 1 OpenMP) for 2000 steps with 4000 atoms

Pair  time (%) = 0.141341 (24.1307)
Bond  time (%) = 0.0619481 (10.5762)
Neigh time (%) = 0.0238897 (4.07861)
Comm  time (%) = 0.149189 (25.4705)
Outpt time (%) = 0.00101829 (0.173848)
Other time (%) = 0.208346 (35.5701)

Nlocal:    1000 ave 1033 max 964 min
Histogram: 1 0 0 0 1 0 1 0 0 1
Nghost:    1105 ave 1117 max 1093 min
Histogram: 1 1 0 0 0 0 0 0 1 1
Neighs:    2802.75 ave 3000 max 2582 min
Histogram: 1 0 0 1 0 0 0 1 0 1

Total # of neighbors = 11211
Ave neighs/atom = 2.80275
Ave special neighs/atom = 5.925
Neighbor list builds = 29
Dangerous builds = 0
shell          head -n 2 Temp.txt | tail -n 1 >> Tempfile.txt
shell          head -n 2 Bond.txt | tail -n 1 >> Bondfile.txt
next           myTempStr
next           myBondStr
if "${myBond} <= 0" then "jump imdinput.txt nobonds"
jump           imdinput.txt loop2here

# specifies the run length in timesteps
run            2000
WARNING: Use special bonds = 0,1,1 with bond style fene (../bond_fene.cpp:188)
Memory usage per processor = 5.58492 Mbytes
Step Temp E_pair E_mol TotEng Press 
  700000   0.49917023  0.098935377    20.333599    21.181102   0.22955649 
  700100     0.501194  0.097824077    20.329112    21.178539   0.32631479 
  700200   0.50207955  0.096258527    20.336247    21.185436    0.1852124 
  700300   0.50108604  0.094780661    20.335339     21.18156    0.4083659 
  700400   0.50406916  0.094412215    20.334372    21.184699  0.051650468 
  700500    0.4967608   0.09338011    20.333596    21.171931   0.25531419 
  700600   0.50013997  0.091770339    20.334739    21.176532   0.35797492 
  700700   0.49418216  0.091402396    20.336472    21.168962    0.2773058 
  700800   0.50079591  0.092310329    20.333674     21.17699   0.28588419 
  700900   0.50163034  0.093637724     20.32962    21.175515   0.30604144 
  701000   0.49594555  0.094869321    20.335435    21.174037   0.38252776 
  701100   0.49454506  0.097091176    20.331822    21.170546   0.30324011 
  701200   0.48631493  0.098118942    20.336873    21.164282   0.29602997 
  701300   0.49207611  0.097877109    20.334331    21.170138   0.41856045 
  701400   0.49842848  0.097625812    20.337439     21.18252    0.1540126 
  701500   0.51088013  0.098028532    20.328546    21.192703    0.1511928 
  701600   0.50103725  0.097174256    20.337303    21.185845   0.36316886 
  701700   0.50222097  0.097913877    20.333479    21.184536   0.35561805 
  701800     0.498501  0.097061708    20.329092    21.173718   0.11348653 
  701900   0.49522498  0.096643986    20.334918    21.174214   0.17701175 
  702000   0.49216027  0.096809001    20.334086    21.168951   0.27494866 
Loop time of 0.574868 on 4 procs (4 MPI x 1 OpenMP) for 2000 steps with 4000 atoms

Pair  time (%) = 0.140735 (24.4813)
Bond  time (%) = 0.0627383 (10.9135)
Neigh time (%) = 0.0225842 (3.92859)
Comm  time (%) = 0.140742 (24.4826)
Outpt time (%) = 0.00102437 (0.178191)
Other time (%) = 0.207044 (36.0159)

Nlocal:    1000 ave 1024 max 952 min
Histogram: 1 0 0 0 0 0 0 1 0 2
Nghost:    1081.25 ave 1099 max 1065 min
Histogram: 1 0 1 0 0 0 1 0 0 1
Neighs:    2809.75 ave 3015 max 2577 min
Histogram: 1 0 0 0 0 1 1 0 0 1

Total # of neighbors = 11239
Ave neighs/atom = 2.80975
Ave special neighs/atom = 5.925
Neighbor list builds = 28
Dangerous builds = 0
shell          head -n 2 Temp.txt | tail -n 1 >> Tempfile.txt
shell          head -n 2 Bond.txt | tail -n 1 >> Bondfile.txt
next           myTempStr
next           myBondStr
if "${myBond} <= 0" then "jump imdinput.txt nobonds"
jump           imdinput.txt loop2here

# specifies the run length in timesteps
run            2000
WARNING: Use special bonds = 0,1,1 with bond style fene (../bond_fene.cpp:188)
Memory usage per processor = 5.58224 Mbytes
Step Temp E_pair E_mol TotEng Press 
  702000   0.49216027  0.096809001    20.334086    21.168951   0.27494866 
  702100   0.49947706  0.097241035    20.328531      21.1748   0.31822257 
  702200   0.49943831    0.0961756    20.335079    21.180224   0.19865245 
  702300   0.50281006  0.096761922    20.332657    21.183445   0.22711142 
  702400   0.49926462  0.097682926    20.339712    21.186104   0.18439946 
  702500   0.50305489  0.099579134    20.332518    21.186491   0.24995582 
  702600   0.50672368   0.10088493    20.331241    21.192022   0.38391726 
  702700   0.50183848   0.10134789    20.336114    21.190031   0.42546899 
  702800   0.49990679   0.10158263    20.332499    21.183755   0.30180366 
  702900   0.50704613   0.10343122    20.324353    21.188163   0.32657049 
  703000   0.49851931   0.10233847    20.333513    21.183444    0.1887137 
  703100   0.49201416   0.10292414    20.336836    21.177597   0.14014997 
  703200   0.49795316   0.10281873      20.3276    21.177162   0.17403639 
  703300    0.5016211   0.10160489    20.328539    21.182388   0.35244071 
  703400   0.50186065  0.099856844    20.330213    21.182672   0.24826747 
  703500   0.50281232  0.096441044    20.331312    21.181783   0.44956276 
  703600   0.50115639  0.094735709    20.331563    21.177846   0.24451149 
  703700   0.51163979  0.094501828    20.327633    21.189403   0.34917509 
  703800   0.50267688  0.094203838    20.343991    21.192021   0.39361581 
  703900   0.50804929  0.094412046    20.333303    21.189599   0.31546125 
  704000   0.50119615  0.095277231    20.331434    21.178317  0.041849029 
Loop time of 0.574196 on 4 procs (4 MPI x 1 OpenMP) for 2000 steps with 4000 atoms

Pair  time (%) = 0.142594 (24.8336)
Bond  time (%) = 0.0628603 (10.9475)
Neigh time (%) = 0.0222838 (3.88087)
Comm  time (%) = 0.139366 (24.2716)
Outpt time (%) = 0.00100201 (0.174507)
Other time (%) = 0.20609 (35.8919)

Nlocal:    1000 ave 1047 max 972 min
Histogram: 1 0 2 0 0 0 0 0 0 1
Nghost:    1063.5 ave 1106 max 1032 min
Histogram: 1 0 1 0 1 0 0 0 0 1
Neighs:    2814.25 ave 3223 max 2562 min
Histogram: 1 0 2 0 0 0 0 0 0 1

Total # of neighbors = 11257
Ave neighs/atom = 2.81425
Ave special neighs/atom = 5.925
Neighbor list builds = 28
Dangerous builds = 0
shell          head -n 2 Temp.txt | tail -n 1 >> Tempfile.txt
shell          head -n 2 Bond.txt | tail -n 1 >> Bondfile.txt
next           myTempStr
next           myBondStr
if "${myBond} <= 0" then "jump imdinput.txt nobonds"
jump           imdinput.txt loop2here

# specifies the run length in timesteps
run            2000
WARNING: Use special bonds = 0,1,1 with bond style fene (../bond_fene.cpp:188)
Memory usage per processor = 5.58834 Mbytes
Step Temp E_pair E_mol TotEng Press 
  704000   0.50119615  0.095277231    20.331434    21.178317  0.041849029 
  704100   0.49930384  0.096425902    20.333954    21.179148   0.25462609 
  704200   0.50327706  0.096628632    20.326343    21.177698   0.30825052 
  704300   0.50027948  0.099572929    20.327985     21.17779 0.0099012894 
  704400   0.49877004  0.099394207    20.324414    21.171776   0.31121484 
  704500   0.50117522  0.098675278    20.318078    21.168328     0.497897 
  704600   0.49580532  0.097310356     20.33251    21.173343   0.14199506 
  704700   0.48456578  0.095868602    20.341575     21.16411  0.078772434 
  704800   0.50350859  0.096101949    20.322856    21.174032   0.13194972 
  704900   0.50362136  0.095745084    20.321834    21.172822    0.2579387 
  705000   0.49273733  0.096866163    20.331878    21.167665   0.39426113 
  705100   0.49699103   0.09735801    20.329513    21.172171   0.24469144 
  705200   0.50643473  0.096611759    20.328606     21.18468   0.27344837 
  705300   0.49872648  0.093646264    20.337217    21.178766   0.28661721 
  705400   0.49954656  0.093916628    20.334744    21.177794   0.24337849 
  705500   0.50565829  0.095821958     20.32725     21.18137   0.36150941 
  705600   0.49677313   0.10229858    20.329989    21.177261    0.2671605 
  705700   0.49728643   0.10490164    20.330789    21.181434   0.26822693 
  705800   0.49941456   0.10678042    20.334508    21.190223   0.19861067 
  705900   0.50027328   0.10462296    20.330972    21.185818   0.30276039 
  706000   0.50200301   0.10305512    20.332307    21.188179   0.33319704 
Loop time of 0.57253 on 4 procs (4 MPI x 1 OpenMP) for 2000 steps with 4000 atoms

Pair  time (%) = 0.141863 (24.7783)
Bond  time (%) = 0.0625022 (10.9169)
Neigh time (%) = 0.0228457 (3.99031)
Comm  time (%) = 0.138681 (24.2225)
Outpt time (%) = 0.00097537 (0.170362)
Other time (%) = 0.205662 (35.9217)

Nlocal:    1000 ave 1014 max 980 min
Histogram: 1 0 0 0 0 1 0 0 1 1
Nghost:    1073.5 ave 1123 max 1037 min
Histogram: 1 1 0 0 0 1 0 0 0 1
Neighs:    2825.75 ave 3033 max 2639 min
Histogram: 1 0 0 1 0 1 0 0 0 1

Total # of neighbors = 11303
Ave neighs/atom = 2.82575
Ave special neighs/atom = 5.925
Neighbor list builds = 29
Dangerous builds = 0
shell          head -n 2 Temp.txt | tail -n 1 >> Tempfile.txt
shell          head -n 2 Bond.txt | tail -n 1 >> Bondfile.txt
next           myTempStr
next           myBondStr
if "${myBond} <= 0" then "jump imdinput.txt nobonds"
jump           imdinput.txt loop2here

# specifies the run length in timesteps
run            2000
WARNING: Use special bonds = 0,1,1 with bond style fene (../bond_fene.cpp:188)
Memory usage per processor = 5.58028 Mbytes
Step Temp E_pair E_mol TotEng Press 
  706000   0.50200301   0.10305512    20.332307    21.188179   0.33319704 
  706100   0.51047024   0.10116275    20.320055    21.186732   0.19196004 
  706200   0.50191652  0.099966384    20.325823    21.178476   0.32165216 
  706300   0.49869344   0.10148285    20.330606    21.179942   0.35338902 
  706400   0.50256114   0.10481481    20.324338    21.182806    0.1369242 
  706500   0.49610894   0.10626557    20.326552    21.176795   0.26572343 
  706600   0.49686627   0.10734505    20.327636    21.180095   0.34929188 
  706700     0.502529   0.10535219    20.329715    21.188672   0.28267091 
  706800   0.50104608   0.10051149    20.332233    21.184126   0.21387991 
  706900   0.50768629  0.097848323    20.324139    21.183327   0.27046741 
  707000   0.50020234  0.099116035    20.331604    21.180836   0.34862062 
  707100   0.50165733  0.099350992    20.329436    21.181085   0.27439425 
  707200    0.4996852   0.10268819    20.330344    21.182372   0.20921811 
  707300   0.50393447   0.10402301    20.322984     21.18272   0.22651834 
  707400   0.49519463   0.10628138    20.332149    21.181037   0.17168271 
  707500   0.49866741   0.10450889    20.330621    21.182944   0.24601963 
  707600    0.5025843   0.10284842     20.32388    21.180416   0.29570578 
  707700   0.49748231   0.10087284     20.32607    21.172979   0.38118322 
  707800   0.49488791    0.1026474    20.331015    21.175809   0.29371103 
  707900    0.4904734   0.10611146    20.327079    21.168717   0.18689767 
  708000   0.49885116   0.10508595    20.328852    21.182028    0.1087962 
Loop time of 0.579786 on 4 procs (4 MPI x 1 OpenMP) for 2000 steps with 4000 atoms

Pair  time (%) = 0.144694 (24.9565)
Bond  time (%) = 0.0623279 (10.7502)
Neigh time (%) = 0.0224427 (3.87086)
Comm  time (%) = 0.141023 (24.3233)
Outpt time (%) = 0.00110769 (0.191052)
Other time (%) = 0.20819 (35.9081)

Nlocal:    1000 ave 1040 max 974 min
Histogram: 1 0 1 1 0 0 0 0 0 1
Nghost:    1082 ave 1094 max 1074 min
Histogram: 1 1 0 0 1 0 0 0 0 1
Neighs:    2871.25 ave 3228 max 2680 min
Histogram: 1 1 1 0 0 0 0 0 0 1

Total # of neighbors = 11485
Ave neighs/atom = 2.87125
Ave special neighs/atom = 5.925
Neighbor list builds = 28
Dangerous builds = 0
shell          head -n 2 Temp.txt | tail -n 1 >> Tempfile.txt
shell          head -n 2 Bond.txt | tail -n 1 >> Bondfile.txt
next           myTempStr
next           myBondStr
if "${myBond} <= 0" then "jump imdinput.txt nobonds"
jump           imdinput.txt loop2here

# specifies the run length in timesteps
run            2000
WARNING: Use special bonds = 0,1,1 with bond style fene (../bond_fene.cpp:188)
Memory usage per processor = 5.58639 Mbytes
Step Temp E_pair E_mol TotEng Press 
  708000   0.49885116   0.10508595    20.328852    21.182028    0.1087962 
  708100    0.4996849    0.1045731    20.330626    21.184539    0.3219923 
  708200   0.50338114   0.10295767    20.330234    21.188074   0.32305175 
  708300   0.50178466   0.10280558    20.330868    21.186163   0.15601207 
  708400   0.49895826   0.10311917    20.332115    21.183484   0.33252922 
  708500   0.50393856     0.100575    20.332103    21.188397   0.25012598 
  708600   0.49472459  0.097925802    20.335992    21.175819   0.37452639 
  708700   0.50017282  0.094593123    20.323508    21.168172   0.26324534 
  708800   0.48621649  0.094376711    20.327212    21.150732   0.19901161 
  708900   0.48635309  0.095303815    20.328354    21.153005   0.11709141 
  709000    0.4944388  0.096561985    20.318478    21.156512   0.26223992 
  709100   0.48932242  0.099121335    20.330147    21.163068   0.44924597 
  709200   0.48912324   0.10251432    20.326842    21.162858   0.18068323 
  709300   0.48752972   0.10366872    20.323613    21.158394   0.14746865 
  709400   0.48916084   0.10366304    20.322333    21.159554   0.29893271 
  709500   0.49675575   0.10291259    20.329156    21.177016    0.3380471 
  709600   0.49479464   0.10301061    20.321487    21.166504   0.24415839 
  709700   0.49648241   0.10170366    20.322037    21.168278   0.35231188 
  709800   0.49081421   0.10200789    20.322882    21.160927   0.25672417 
  709900   0.49674755   0.10158276    20.314667    21.161185   0.29432897 
  710000   0.50436216  0.099699675     20.31115    21.167204   0.17451369 
Loop time of 0.568219 on 4 procs (4 MPI x 1 OpenMP) for 2000 steps with 4000 atoms

Pair  time (%) = 0.144153 (25.3693)
Bond  time (%) = 0.0618051 (10.877)
Neigh time (%) = 0.0225672 (3.97156)
Comm  time (%) = 0.13633 (23.9925)
Outpt time (%) = 0.000984251 (0.173217)
Other time (%) = 0.20238 (35.6165)

Nlocal:    1000 ave 1056 max 964 min
Histogram: 1 0 1 1 0 0 0 0 0 1
Nghost:    1071.25 ave 1090 max 1054 min
Histogram: 1 0 0 1 0 1 0 0 0 1
Neighs:    2812.25 ave 3241 max 2582 min
Histogram: 1 1 1 0 0 0 0 0 0 1

Total # of neighbors = 11249
Ave neighs/atom = 2.81225
Ave special neighs/atom = 5.925
Neighbor list builds = 29
Dangerous builds = 0
shell          head -n 2 Temp.txt | tail -n 1 >> Tempfile.txt
shell          head -n 2 Bond.txt | tail -n 1 >> Bondfile.txt
next           myTempStr
next           myBondStr
if "${myBond} <= 0" then "jump imdinput.txt nobonds"
jump           imdinput.txt loop2here

# specifies the run length in timesteps
run            2000
WARNING: Use special bonds = 0,1,1 with bond style fene (../bond_fene.cpp:188)
Memory usage per processor = 5.59078 Mbytes
Step Temp E_pair E_mol TotEng Press 
  710000   0.50436216  0.099699675     20.31115    21.167204   0.17451369 
  710100   0.50134989  0.099057328    20.325095    21.175989   0.38329045 
  710200   0.49369982  0.099277194    20.326569    21.166211   0.27049787 
  710300   0.50398266  0.099069867    20.313194    21.168049   0.34427594 
  710400   0.50027216  0.098992841    20.319172    21.168386   0.10745054 
  710500   0.50282383  0.099476046    20.321136    21.174659  0.049828342 
  710600   0.50023814   0.10136616    20.321846    21.173382   0.30242721 
  710700    0.5007979   0.10035142    20.321879     21.17324   0.17359465 
  710800   0.50516641  0.098349196     20.32336    21.179269   0.32848616 
  710900   0.50195061  0.099773029    20.328925    21.181435   0.30333979 
  711000   0.50566488   0.10080155      20.3215    21.180609   0.32257204 
  711100   0.50033355   0.10167886    20.333426    21.185417    0.2663434 
  711200   0.49939508   0.10160706     20.32954    21.180053   0.24192523 
  711300   0.49138634   0.10280594    20.333366    21.173068   0.17364453 
  711400    0.4977896    0.1026521    20.325852    21.175002    0.2959755 
  711500   0.49643388   0.10264284    20.329612     21.17672   0.18043178 
  711600   0.50133652   0.10257596    20.321423    21.175816    0.2624187 
  711700   0.49688846   0.10365708    20.325194    21.173997   0.27593022 
  711800   0.50257531   0.10566322    20.324919    21.184256   0.38196811 
  711900   0.49125746   0.10492955    20.335931    21.177562    0.1731948 
  712000   0.49817153   0.10326578    20.324202    21.174539   0.12573143 
Loop time of 0.56634 on 4 procs (4 MPI x 1 OpenMP) for 2000 steps with 4000 atoms

Pair  time (%) = 0.140339 (24.78)
Bond  time (%) = 0.0615439 (10.8669)
Neigh time (%) = 0.0219267 (3.87165)
Comm  time (%) = 0.138342 (24.4274)
Outpt time (%) = 0.00100517 (0.177486)
Other time (%) = 0.203183 (35.8765)

Nlocal:    1000 ave 1034 max 978 min
Histogram: 1 1 0 0 1 0 0 0 0 1
Nghost:    1083.75 ave 1114 max 1064 min
Histogram: 1 1 0 0 1 0 0 0 0 1
Neighs:    2810.5 ave 3019 max 2686 min
Histogram: 2 0 0 0 1 0 0 0 0 1

Total # of neighbors = 11242
Ave neighs/atom = 2.8105
Ave special neighs/atom = 5.925
Neighbor list builds = 28
Dangerous builds = 0
shell          head -n 2 Temp.txt | tail -n 1 >> Tempfile.txt
shell          head -n 2 Bond.txt | tail -n 1 >> Bondfile.txt
next           myTempStr
next           myBondStr
if "${myBond} <= 0" then "jump imdinput.txt nobonds"
jump           imdinput.txt loop2here

# specifies the run length in timesteps
run            2000
WARNING: Use special bonds = 0,1,1 with bond style fene (../bond_fene.cpp:188)
Memory usage per processor = 5.58419 Mbytes
Step Temp E_pair E_mol TotEng Press 
  712000   0.49817153   0.10326578    20.324202    21.174539   0.12573143 
  712100   0.49783042   0.10278754     20.32836    21.177707   0.25000087 
  712200   0.49250904   0.10078806     20.33228    21.171647   0.27961882 
  712300   0.50244274  0.098380029    20.326793    21.178649   0.30865325 
  712400   0.50227434  0.096529995    20.335428    21.185181   0.30090482 
  712500   0.49981212  0.093418444    20.336197    21.179146   0.26162393 
  712600   0.50361499  0.090988377    20.330314    21.176536    0.3020401 
  712700   0.50306618  0.090151592    20.333564    21.178126   0.23962739 
  712800   0.50051764  0.090433689    20.331012    21.172034  0.048933419 
  712900   0.50220573  0.091289716    20.334281    21.178691   0.46481368 
  713000   0.50487203  0.092627463     20.33525    21.184996   0.20367389 
  713100   0.50380096  0.094475489    20.337849    21.187837   0.17727909 
  713200   0.50963106  0.097270452    20.335326    21.196852   0.41097484 
  713300   0.51230674   0.10045889    20.331225    21.199952   0.17582724 
  713400   0.51204494   0.10077292    20.334133    21.202781   0.23467478 
  713500   0.52356422  0.099012135    20.322831    21.206993   0.16342408 
  713600   0.50457251  0.097302659    20.336184    21.190156   0.23534127 
  713700   0.50402148  0.095965596    20.334807    21.186616   0.11489454 
  713800   0.50345875  0.097011876    20.333332    21.185343   0.17680669 
  713900   0.50443423  0.099229126    20.326161    21.181852   0.36528053 
  714000    0.4992477   0.10029478    20.327093    21.176072   0.28551104 
Loop time of 0.584562 on 4 procs (4 MPI x 1 OpenMP) for 2000 steps with 4000 atoms

Pair  time (%) = 0.143778 (24.5959)
Bond  time (%) = 0.0627707 (10.7381)
Neigh time (%) = 0.0226203 (3.86961)
Comm  time (%) = 0.145221 (24.8427)
Outpt time (%) = 0.00117618 (0.201207)
Other time (%) = 0.208996 (35.7525)

Nlocal:    1000 ave 1031 max 948 min
Histogram: 1 0 0 0 0 0 1 0 1 1
Nghost:    1069.5 ave 1081 max 1060 min
Histogram: 1 0 0 1 1 0 0 0 0 1
Neighs:    2846.75 ave 3096 max 2445 min
Histogram: 1 0 0 0 0 0 1 1 0 1

Total # of neighbors = 11387
Ave neighs/atom = 2.84675
Ave special neighs/atom = 5.925
Neighbor list builds = 28
Dangerous builds = 0
shell          head -n 2 Temp.txt | tail -n 1 >> Tempfile.txt
shell          head -n 2 Bond.txt | tail -n 1 >> Bondfile.txt
next           myTempStr
next           myBondStr
if "${myBond} <= 0" then "jump imdinput.txt nobonds"
jump           imdinput.txt loop2here

# specifies the run length in timesteps
run            2000
WARNING: Use special bonds = 0,1,1 with bond style fene (../bond_fene.cpp:188)
Memory usage per processor = 5.58443 Mbytes
Step Temp E_pair E_mol TotEng Press 
  714000    0.4992477   0.10029478    20.327093    21.176072   0.28551104 
  714100   0.49767582   0.10007972    20.324629    21.171036    0.2829519 
  714200   0.49181193   0.10057545    20.333107    21.171216   0.35556642 
  714300   0.49816596    0.1006486    20.324607    21.172317   0.26310271 
  714400   0.49274668   0.10083224    20.339949    21.179717   0.19179363 
  714500    0.4974896    0.1015472    20.332742    21.180337   0.18666363 
  714600   0.50381152   0.10005386    20.323685    21.179267   0.25690539 
  714700    0.5044117    0.1001255    20.323602    21.180156    0.2105271 
  714800   0.50335037  0.099191917    20.327729    21.181758   0.35973927 
  714900   0.50143557  0.098668204    20.326598    21.177231   0.47576173 
  715000    0.5004268  0.096768999     20.32652    21.173742   0.34410217 
  715100   0.49918816  0.095157273    20.331348      21.1751   0.14252075 
  715200   0.50775651  0.094281161    20.328198    21.183924    0.1806529 
  715300   0.50378499   0.09370525    20.335162    21.184356   0.30738818 
  715400   0.50030735  0.094247456    20.329663    21.174184   0.23769799 
  715500   0.50402869    0.0964496    20.323006     21.17531    0.3522467 
  715600   0.49952324  0.097490796    20.331888    21.178476   0.18998936 
  715700   0.49884419  0.098215167    20.332298    21.178592   0.30513041 
  715800   0.50380026  0.099159142    20.330586    21.185256  0.083461917 
  715900   0.50663605   0.10015309    20.331482    21.191399   0.21454998 
  716000   0.50779887   0.10077301    20.334347    21.196628    0.3821328 
Loop time of 0.603115 on 4 procs (4 MPI x 1 OpenMP) for 2000 steps with 4000 atoms

Pair  time (%) = 0.144481 (23.9558)
Bond  time (%) = 0.0612607 (10.1574)
Neigh time (%) = 0.0239255 (3.967)
Comm  time (%) = 0.16194 (26.8507)
Outpt time (%) = 0.00101578 (0.168423)
Other time (%) = 0.210491 (34.9007)

Nlocal:    1000 ave 1046 max 951 min
Histogram: 1 0 0 0 1 0 1 0 0 1
Nghost:    1076.25 ave 1118 max 1051 min
Histogram: 1 1 0 1 0 0 0 0 0 1
Neighs:    2819.5 ave 3212 max 2450 min
Histogram: 1 0 0 1 0 1 0 0 0 1

Total # of neighbors = 11278
Ave neighs/atom = 2.8195
Ave special neighs/atom = 5.925
Neighbor list builds = 28
Dangerous builds = 0
shell          head -n 2 Temp.txt | tail -n 1 >> Tempfile.txt
shell          head -n 2 Bond.txt | tail -n 1 >> Bondfile.txt
next           myTempStr
next           myBondStr
if "${myBond} <= 0" then "jump imdinput.txt nobonds"
jump           imdinput.txt loop2here

# specifies the run length in timesteps
run            2000
WARNING: Use special bonds = 0,1,1 with bond style fene (../bond_fene.cpp:188)
Memory usage per processor = 5.58834 Mbytes
Step Temp E_pair E_mol TotEng Press 
  716000   0.50779887   0.10077301    20.334347    21.196628    0.3821328 
  716100   0.50123498   0.10156892    20.334476    21.187709   0.24502302 
  716200   0.49545513    0.1021308    20.335927    21.181055   0.28066377 
  716300   0.49268846   0.10225801    20.336265    21.177371   0.29307039 
  716400   0.50218322   0.10065762    20.321914    21.175658   0.32544398 
  716500   0.49739005  0.099679221    20.335677    21.181255  0.045709488 
  716600   0.49862218  0.096514852    20.334405    21.178666   0.41052101 
  716700   0.50280501  0.094850812    20.330306    21.179176   0.17941293 
  716800   0.51111706  0.094623899    20.323217    21.184325   0.19004128 
  716900   0.51592422  0.095558945    20.326258     21.19551   0.43629079 
  717000   0.50938879   0.09512045     20.32898    21.187993    0.3504354 
  717100   0.50901144  0.096867443    20.329508    21.189702   0.17872248 
  717200   0.49873984  0.098590608    20.332108    21.178622  0.086962305 
  717300   0.49830436  0.098413511    20.328896    21.174579   0.39756665 
  717400   0.50417631  0.098558831    20.321476     21.17611   0.14865053 
  717500   0.49914042  0.097482634    20.325215    21.171221   0.37187638 
  717600   0.49692907   0.09785962    20.330363     21.17343    0.3082144 
  717700   0.50023385  0.096830588    20.332911    21.179905   0.38739294 
  717800   0.50514961  0.096548432    20.328397    21.182481   0.28534668 
  717900   0.50157215  0.097696252    20.328252    21.178119  0.083562278 
  718000   0.50431719  0.098954768     20.32664    21.181882   0.38037373 
Loop time of 0.584944 on 4 procs (4 MPI x 1 OpenMP) for 2000 steps with 4000 atoms

Pair  time (%) = 0.140895 (24.0869)
Bond  time (%) = 0.0610587 (10.4384)
Neigh time (%) = 0.0236856 (4.04921)
Comm  time (%) = 0.151317 (25.8687)
Outpt time (%) = 0.000991523 (0.169507)
Other time (%) = 0.206996 (35.3873)

Nlocal:    1000 ave 1034 max 948 min
Histogram: 1 0 0 0 0 1 0 0 1 1
Nghost:    1104.5 ave 1128 max 1066 min
Histogram: 1 0 0 0 0 0 1 0 1 1
Neighs:    2816.5 ave 3103 max 2492 min
Histogram: 1 0 0 0 0 1 1 0 0 1

Total # of neighbors = 11266
Ave neighs/atom = 2.8165
Ave special neighs/atom = 5.925
Neighbor list builds = 29
Dangerous builds = 0
